generated by phonopy
   1.0
    32.4484610621599998    0.0000000000000000    0.0009066690257608
     0.0000000000000000   21.2906669840692331    0.0000000000000000
     0.0004775466920902    0.0000000000000000   17.0563598770962130
Bi Sb
  40   40
Direct
  0.0408358056690580  0.0000000000000000  0.5468894006031751
  0.2908358056690580  0.0000000000000000  0.5468894006031751
  0.5408358056690581  0.0000000000000000  0.5468894006031751
  0.7908358056690581  0.0000000000000000  0.5468894006031751
  0.0408358056690580  0.2000000000000000  0.5468894006031751
  0.2908358056690580  0.2000000000000000  0.5468894006031751
  0.5408358056690581  0.2000000000000000  0.5468894006031751
  0.7908358056690581  0.2000000000000000  0.5468894006031751
  0.0408358056690580  0.4000000000000000  0.5468894006031751
  0.2908358056690580  0.4000000000000000  0.5468894006031751
  0.5408358056690581  0.4000000000000000  0.5468894006031751
  0.7908358056690581  0.4000000000000000  0.5468894006031751
  0.0408358056690580  0.6000000000000001  0.5468894006031751
  0.2908358056690580  0.6000000000000001  0.5468894006031751
  0.5408358056690581  0.6000000000000001  0.5468894006031751
  0.7908358056690581  0.6000000000000001  0.5468894006031751
  0.0408358056690580  0.7999999999999999  0.5468894006031751
  0.2908358056690580  0.7999999999999999  0.5468894006031751
  0.5408358056690581  0.7999999999999999  0.5468894006031751
  0.7908358056690581  0.7999999999999999  0.5468894006031751
  0.1658358056690580  0.1000000000000000  0.5468894006031751
  0.4158358056690580  0.1000000000000000  0.5468894006031750
  0.6658358056690582  0.1000000000000000  0.5468894006031751
  0.9158358056690581  0.1000000000000000  0.5468894006031751
  0.1658358056690580  0.3000000000000000  0.5468894006031751
  0.4158358056690580  0.3000000000000000  0.5468894006031750
  0.6658358056690582  0.3000000000000000  0.5468894006031751
  0.9158358056690581  0.3000000000000000  0.5468894006031751
  0.1658358056690580  0.4999999999999999  0.5468894006031751
  0.4158358056690580  0.4999999999999999  0.5468894006031750
  0.6658358056690582  0.4999999999999999  0.5468894006031751
  0.9158358056690581  0.4999999999999999  0.5468894006031751
  0.1658358056690580  0.7000000000000001  0.5468894006031751
  0.4158358056690580  0.7000000000000001  0.5468894006031750
  0.6658358056690582  0.7000000000000001  0.5468894006031751
  0.9158358056690581  0.7000000000000001  0.5468894006031751
  0.1658358056690580  0.8999999999999999  0.5468894006031751
  0.4158358056690580  0.8999999999999999  0.5468894006031750
  0.6658358056690582  0.8999999999999999  0.5468894006031751
  0.9158358056690581  0.8999999999999999  0.5468894006031751
  0.0841641943309420  0.1000000000000000  0.4536968909659600
  0.3341641943309420  0.1000000000000000  0.4531105993968247
  0.5841641943309419  0.1000000000000000  0.4531105993968247
  0.8341641943309419  0.1000000000000000  0.4531105993968246
  0.0841641943309420  0.3000000000000000  0.4531105993968246
  0.3341641943309420  0.3000000000000000  0.4531105993968247
  0.5841641943309419  0.3000000000000000  0.4531105993968247
  0.8341641943309419  0.3000000000000000  0.4531105993968246
  0.0841641943309420  0.4999999999999999  0.4531105993968246
  0.3341641943309420  0.4999999999999999  0.4531105993968247
  0.5841641943309419  0.4999999999999999  0.4531105993968247
  0.8341641943309419  0.4999999999999999  0.4531105993968246
  0.0841641943309420  0.7000000000000001  0.4531105993968246
  0.3341641943309420  0.7000000000000001  0.4531105993968247
  0.5841641943309419  0.7000000000000001  0.4531105993968247
  0.8341641943309419  0.7000000000000001  0.4531105993968246
  0.0841641943309420  0.8999999999999999  0.4531105993968246
  0.3341641943309420  0.8999999999999999  0.4531105993968247
  0.5841641943309419  0.8999999999999999  0.4531105993968247
  0.8341641943309419  0.8999999999999999  0.4531105993968246
  0.2091641943309420  0.0000000000000000  0.4531105993968247
  0.4591641943309420  0.0000000000000000  0.4531105993968247
  0.7091641943309419  0.0000000000000000  0.4531105993968247
  0.9591641943309419  0.0000000000000000  0.4531105993968247
  0.2091641943309420  0.2000000000000000  0.4531105993968247
  0.4591641943309420  0.2000000000000000  0.4531105993968247
  0.7091641943309419  0.2000000000000000  0.4531105993968247
  0.9591641943309419  0.2000000000000000  0.4531105993968247
  0.2091641943309420  0.4000000000000000  0.4531105993968247
  0.4591641943309420  0.4000000000000000  0.4531105993968247
  0.7091641943309419  0.4000000000000000  0.4531105993968247
  0.9591641943309419  0.4000000000000000  0.4531105993968247
  0.2091641943309420  0.6000000000000001  0.4531105993968247
  0.4591641943309420  0.6000000000000001  0.4531105993968247
  0.7091641943309419  0.6000000000000001  0.4531105993968247
  0.9591641943309419  0.6000000000000001  0.4531105993968247
  0.2091641943309420  0.7999999999999999  0.4531105993968247
  0.4591641943309420  0.7999999999999999  0.4531105993968247
  0.7091641943309419  0.7999999999999999  0.4531105993968247
  0.9591641943309419  0.7999999999999999  0.4531105993968247
