Buckled BiSb Strain
   1.00000000000000
     8.1121152655400000    0.0000000000000000    0.0002266672564402
     0.0000000000000000    4.2581333968138466    0.0000000000000000
     0.0004775466920902    0.0000000000000000   17.0563598770962130
   Bi   Sb
     2     2
Direct
  0.1633432226762322  0.0000000000000000  0.5468894006031751
  0.6633432226762321  0.5000000000000000  0.5468894006031751
  0.3366567773237678  0.5000000000000000  0.4531105993968247
  0.8366567773237679  0.0000000000000000  0.4531105993968247

  0.00000000E+00  0.00000000E+00  0.00000000E+00
  0.00000000E+00  0.00000000E+00  0.00000000E+00
  0.00000000E+00  0.00000000E+00  0.00000000E+00
  0.00000000E+00  0.00000000E+00  0.00000000E+00
