Buckled BiSb Strain
   1.00000000000000
     6.9569614101431991    0.0000000085253068   -0.0001444903451744
     0.0000000120902342    4.0158805860149940   -0.0000000283509434
    -0.0003327963331759   -0.0000001191623370   17.0942015038116715
   Bi   As
     2     2
Direct
  0.1666622471391648  0.9999999988210959  0.5454247519253173
  0.6666622471391648  0.4999999988210959  0.5454247519253173
  0.3333377528608352  0.5000000011789041  0.4545752480746827
  0.8333377528608352  0.0000000011789041  0.4545752480746827
