<?xml version="1.0" encoding="ISO-8859-1"?>
<modeling>
 <generator>
  <i name="program" type="string">vasp </i>
  <i name="version" type="string">6.4.3  </i>
  <i name="subversion" type="string">19Mar24 (build Jan 17 2026 20:14:01) complex                          parallel </i>
  <i name="platform" type="string">LinuxIFC </i>
  <i name="date" type="string">2026 03 26 </i>
  <i name="time" type="string">12:52:19 </i>
 </generator>
 <incar>
  <i type="string" name="PREC">Accurate</i>
  <i type="int" name="IALGO">    38</i>
  <i type="logical" name="ADDGRID"> T  </i>
  <i type="int" name="ISPIN">     1</i>
  <i type="int" name="IBRION">     2</i>
  <i name="EDIFF">      0.00000001</i>
  <i type="int" name="NSW">     0</i>
  <i name="ENCUT">    500.00000000</i>
  <i name="POTIM">      0.02000000</i>
  <i type="logical" name="LREAL"> F  </i>
  <i type="int" name="ISMEAR">     0</i>
  <i name="SIGMA">      0.05000000</i>
  <i type="logical" name="LWAVE"> F  </i>
  <i type="logical" name="LCHARG"> F  </i>
 </incar>
 <primitive_cell>
  <structure name="primitive_cell" >
   <crystal>
    <varray name="basis" >
     <v>      21.32465726      -0.00000000       0.00000000 </v>
     <v>     -10.66232863      18.46769492       0.00000000 </v>
     <v>       0.00000000       0.00000000      26.60855257 </v>
    </varray>
    <i name="volume">  10478.90738675 </i>
    <varray name="rec_basis" >
     <v>       0.04689407       0.02707430      -0.00000000 </v>
     <v>       0.00000000       0.05414861      -0.00000000 </v>
     <v>       0.00000000       0.00000000       0.03758190 </v>
    </varray>
   </crystal>
   <varray name="positions" >
    <v>       0.13362660       0.06666667       0.53194385 </v>
    <v>       0.33333333       0.06666667       0.53165059 </v>
    <v>       0.53333333       0.06666667       0.53165059 </v>
    <v>       0.73333333       0.06666667       0.53165059 </v>
    <v>       0.93333333       0.06666667       0.53165059 </v>
    <v>       0.13333333       0.26666667       0.53165059 </v>
    <v>       0.33333333       0.26666667       0.53165059 </v>
    <v>       0.53333333       0.26666667       0.53165059 </v>
    <v>       0.73333333       0.26666667       0.53165059 </v>
    <v>       0.93333333       0.26666667       0.53165059 </v>
    <v>       0.13333333       0.46666667       0.53165059 </v>
    <v>       0.33333333       0.46666667       0.53165059 </v>
    <v>       0.53333333       0.46666667       0.53165059 </v>
    <v>       0.73333333       0.46666667       0.53165059 </v>
    <v>       0.93333333       0.46666667       0.53165059 </v>
    <v>       0.13333333       0.66666667       0.53165059 </v>
    <v>       0.33333333       0.66666667       0.53165059 </v>
    <v>       0.53333333       0.66666667       0.53165059 </v>
    <v>       0.73333333       0.66666667       0.53165059 </v>
    <v>       0.93333333       0.66666667       0.53165059 </v>
    <v>       0.13333333       0.86666667       0.53165059 </v>
    <v>       0.33333333       0.86666667       0.53165059 </v>
    <v>       0.53333333       0.86666667       0.53165059 </v>
    <v>       0.73333333       0.86666667       0.53165059 </v>
    <v>       0.93333333       0.86666667       0.53165059 </v>
    <v>       0.06666667       0.13333333       0.46834941 </v>
    <v>       0.26666667       0.13333333       0.46834941 </v>
    <v>       0.46666667       0.13333333       0.46834941 </v>
    <v>       0.66666667       0.13333333       0.46834941 </v>
    <v>       0.86666667       0.13333333       0.46834941 </v>
    <v>       0.06666667       0.33333333       0.46834941 </v>
    <v>       0.26666667       0.33333333       0.46834941 </v>
    <v>       0.46666667       0.33333333       0.46834941 </v>
    <v>       0.66666667       0.33333333       0.46834941 </v>
    <v>       0.86666667       0.33333333       0.46834941 </v>
    <v>       0.06666667       0.53333333       0.46834941 </v>
    <v>       0.26666667       0.53333333       0.46834941 </v>
    <v>       0.46666667       0.53333333       0.46834941 </v>
    <v>       0.66666667       0.53333333       0.46834941 </v>
    <v>       0.86666667       0.53333333       0.46834941 </v>
    <v>       0.06666667       0.73333333       0.46834941 </v>
    <v>       0.26666667       0.73333333       0.46834941 </v>
    <v>       0.46666667       0.73333333       0.46834941 </v>
    <v>       0.66666667       0.73333333       0.46834941 </v>
    <v>       0.86666667       0.73333333       0.46834941 </v>
    <v>       0.06666667       0.93333333       0.46834941 </v>
    <v>       0.26666667       0.93333333       0.46834941 </v>
    <v>       0.46666667       0.93333333       0.46834941 </v>
    <v>       0.66666667       0.93333333       0.46834941 </v>
    <v>       0.86666667       0.93333333       0.46834941 </v>
   </varray>
  </structure>
  <varray name="primitive_index" >
   <v type="int" >        1 </v>
   <v type="int" >        2 </v>
   <v type="int" >        3 </v>
   <v type="int" >        4 </v>
   <v type="int" >        5 </v>
   <v type="int" >        6 </v>
   <v type="int" >        7 </v>
   <v type="int" >        8 </v>
   <v type="int" >        9 </v>
   <v type="int" >       10 </v>
   <v type="int" >       11 </v>
   <v type="int" >       12 </v>
   <v type="int" >       13 </v>
   <v type="int" >       14 </v>
   <v type="int" >       15 </v>
   <v type="int" >       16 </v>
   <v type="int" >       17 </v>
   <v type="int" >       18 </v>
   <v type="int" >       19 </v>
   <v type="int" >       20 </v>
   <v type="int" >       21 </v>
   <v type="int" >       22 </v>
   <v type="int" >       23 </v>
   <v type="int" >       24 </v>
   <v type="int" >       25 </v>
   <v type="int" >       26 </v>
   <v type="int" >       27 </v>
   <v type="int" >       28 </v>
   <v type="int" >       29 </v>
   <v type="int" >       30 </v>
   <v type="int" >       31 </v>
   <v type="int" >       32 </v>
   <v type="int" >       33 </v>
   <v type="int" >       34 </v>
   <v type="int" >       35 </v>
   <v type="int" >       36 </v>
   <v type="int" >       37 </v>
   <v type="int" >       38 </v>
   <v type="int" >       39 </v>
   <v type="int" >       40 </v>
   <v type="int" >       41 </v>
   <v type="int" >       42 </v>
   <v type="int" >       43 </v>
   <v type="int" >       44 </v>
   <v type="int" >       45 </v>
   <v type="int" >       46 </v>
   <v type="int" >       47 </v>
   <v type="int" >       48 </v>
   <v type="int" >       49 </v>
   <v type="int" >       50 </v>
  </varray>
 </primitive_cell>
 <kpoints>
  <generation param="Gamma">
   <v type="int" name="divisions">       4        4        1 </v>
   <v name="usershift">      0.00000000       0.00000000       0.00000000 </v>
   <v name="genvec1">      0.25000000      -0.00000000       0.00000000 </v>
   <v name="genvec2">     -0.00000000       0.25000000       0.00000000 </v>
   <v name="genvec3">      0.00000000       0.00000000       1.00000000 </v>
   <v name="shift">      0.00000000       0.00000000       0.00000000 </v>
  </generation>
  <varray name="kpointlist" >
   <v>       0.00000000       0.00000000       0.00000000 </v>
   <v>       0.25000000      -0.00000000       0.00000000 </v>
   <v>       0.00000000       0.25000000       0.00000000 </v>
   <v>      -0.25000000       0.25000000       0.00000000 </v>
   <v>       0.50000000      -0.00000000       0.00000000 </v>
   <v>       0.00000000       0.50000000       0.00000000 </v>
   <v>       0.50000000       0.50000000       0.00000000 </v>
   <v>       0.25000000       0.25000000       0.00000000 </v>
   <v>      -0.25000000       0.50000000       0.00000000 </v>
   <v>       0.50000000       0.25000000      -0.00000000 </v>
  </varray>
  <varray name="weights" >
   <v>       0.06250000 </v>
   <v>       0.12500000 </v>
   <v>       0.12500000 </v>
   <v>       0.12500000 </v>
   <v>       0.06250000 </v>
   <v>       0.06250000 </v>
   <v>       0.06250000 </v>
   <v>       0.12500000 </v>
   <v>       0.12500000 </v>
   <v>       0.12500000 </v>
  </varray>
 </kpoints>
 <parameters>
  <separator name="general" >
   <i type="string" name="SYSTEM">unknown system</i>
   <i type="logical" name="LCOMPAT"> F  </i>
  </separator>
  <separator name="electronic" >
   <i type="string" name="PREC">accura</i>
   <i name="ENMAX">    500.00000000</i>
   <i name="ENAUG">    442.89900000</i>
   <i name="EDIFF">      0.00000001</i>
   <i type="int" name="IALGO">    38</i>
   <i type="int" name="IWAVPR">    10</i>
   <i type="int" name="NBANDS">   308</i>
   <i type="int" name="NBANDSLOW">    -1</i>
   <i type="int" name="NBANDSHIGH">    -1</i>
   <i name="NELECT">    500.00000000</i>
   <i type="int" name="TURBO">     0</i>
   <i type="int" name="IRESTART">     0</i>
   <i type="int" name="NREBOOT">     0</i>
   <i type="int" name="NMIN">     0</i>
   <i name="EREF">      0.00000000</i>
   <separator name="electronic smearing" >
    <i type="int" name="ISMEAR">     0</i>
    <i name="SIGMA">      0.05000000</i>
    <i name="KSPACING">      0.50000000</i>
    <i type="logical" name="KGAMMA"> T  </i>
    <i type="logical" name="KBLOWUP"> T  </i>
   </separator>
   <separator name="electronic projectors" >
    <i type="logical" name="LREAL"> F  </i>
    <v name="ROPT">      0.00000000      0.00000000</v>
    <i type="int" name="LMAXPAW">  -100</i>
    <i type="int" name="LMAXMIX">     2</i>
    <i type="logical" name="NLSPLINE"> F  </i>
   </separator>
   <separator name="electronic startup" >
    <i type="int" name="ISTART">     0</i>
    <i type="int" name="ICHARG">     2</i>
    <i type="int" name="INIWAV">     1</i>
   </separator>
   <separator name="electronic spin" >
    <i type="int" name="ISPIN">     1</i>
    <i type="logical" name="LNONCOLLINEAR"> F  </i>
    <v name="MAGMOM">      1.00000000      1.00000000      1.00000000      1.00000000      1.00000000      1.00000000      1.00000000      1.00000000      1.00000000      1.00000000      1.00000000      1.00000000      1.00000000      1.00000000      1.00000000      1.00000000      1.00000000      1.00000000      1.00000000      1.00000000
      1.00000000      1.00000000      1.00000000      1.00000000      1.00000000      1.00000000      1.00000000      1.00000000      1.00000000      1.00000000      1.00000000      1.00000000      1.00000000      1.00000000      1.00000000      1.00000000      1.00000000      1.00000000      1.00000000      1.00000000
      1.00000000      1.00000000      1.00000000      1.00000000      1.00000000      1.00000000      1.00000000      1.00000000      1.00000000      1.00000000</v>
    <i name="NUPDOWN">     -1.00000000</i>
    <i type="logical" name="LSORBIT"> F  </i>
    <v name="SAXIS">      0.00000000      0.00000000      1.00000000</v>
    <i type="logical" name="LSPIRAL"> F  </i>
    <v name="QSPIRAL">      0.00000000      0.00000000      0.00000000</v>
    <i type="logical" name="LZEROZ"> F  </i>
   </separator>
   <separator name="electronic exchange-correlation" >
    <i type="logical" name="LASPH"> F  </i>
   </separator>
   <separator name="electronic convergence" >
    <i type="int" name="NELM">    60</i>
    <i type="int" name="NELMDL">    -5</i>
    <i type="int" name="NELMIN">     2</i>
    <i name="ENINI">    500.00000000</i>
    <separator name="electronic convergence detail" >
     <i type="logical" name="LDIAG"> T  </i>
     <i type="logical" name="LSUBROT"> F  </i>
     <i name="WEIMIN">      0.00000000</i>
     <i name="EBREAK">      0.00000000</i>
     <i name="DEPER">      0.30000000</i>
     <i type="int" name="NRMM">     4</i>
     <i name="TIME">      0.40000000</i>
    </separator>
   </separator>
   <separator name="electronic mixer" >
    <i name="AMIX">      0.40000000</i>
    <i name="BMIX">      1.00000000</i>
    <i name="AMIN">      0.10000000</i>
    <i name="AMIX_MAG">      1.60000000</i>
    <i name="BMIX_MAG">      1.00000000</i>
    <separator name="electronic mixer details" >
     <i type="int" name="IMIX">     4</i>
     <i type="logical" name="MIXFIRST"> F  </i>
     <i type="int" name="MAXMIX">   -45</i>
     <i name="WC">    100.00000000</i>
     <i type="int" name="INIMIX">     1</i>
     <i type="int" name="MIXPRE">     1</i>
     <i type="int" name="MREMOVE">     5</i>
    </separator>
   </separator>
   <separator name="electronic dipolcorrection" >
    <i type="logical" name="LDIPOL"> F  </i>
    <i type="logical" name="LMONO"> F  </i>
    <i type="int" name="IDIPOL">     0</i>
    <i name="EPSILON">      1.00000000</i>
    <v name="DIPOL">   -100.00000000   -100.00000000   -100.00000000</v>
    <i name="EFIELD">      0.00000000</i>
    <i type="logical" name="LVACPOTAV"> F  </i>
   </separator>
  </separator>
  <separator name="grids" >
   <i type="int" name="NGX">   160</i>
   <i type="int" name="NGY">   160</i>
   <i type="int" name="NGZ">   196</i>
   <i type="int" name="NGXF">   320</i>
   <i type="int" name="NGYF">   320</i>
   <i type="int" name="NGZF">   392</i>
   <i type="logical" name="ADDGRID"> T  </i>
  </separator>
  <separator name="ionic" >
   <i type="int" name="NSW">     0</i>
   <i type="int" name="IBRION">    -1</i>
   <i type="int" name="MDALGO">     0</i>
   <i type="int" name="ISIF">     2</i>
   <i name="PSTRESS">      0.00000000</i>
   <i name="EDIFFG">      0.00000010</i>
   <i type="int" name="NFREE">     1</i>
   <i name="POTIM">      0.02000000</i>
   <i name="SMASS">     -3.00000000</i>
   <i name="SCALEE">      1.00000000</i>
  </separator>
  <separator name="ionic md" >
   <i name="TEBEG">      0.00010000</i>
   <i name="TEEND">      0.00010000</i>
   <i type="int" name="NBLOCK">     1</i>
   <i type="int" name="KBLOCK">     1</i>
   <i type="int" name="NPACO">   256</i>
   <i name="APACO">     10.00000000</i>
  </separator>
  <separator name="symmetry" >
   <i type="int" name="ISYM">     2</i>
   <i name="SYMPREC">      0.00001000</i>
  </separator>
  <separator name="dos" >
   <i type="int" name="LORBIT">     0</i>
   <v name="RWIGS">     -1.00000000     -1.00000000</v>
   <i type="int" name="NEDOS">   301</i>
   <i name="EMIN">     10.00000000</i>
   <i name="EMAX">    -10.00000000</i>
   <i name="EFERMI">      0.00000000</i>
  </separator>
  <separator name="writing" >
   <i type="int" name="NWRITE">     2</i>
   <i type="logical" name="LWAVE"> F  </i>
   <i type="logical" name="LDOWNSAMPLE"> F  </i>
   <i type="logical" name="LCHARG"> F  </i>
   <i type="logical" name="LPARD"> F  </i>
   <i type="logical" name="LVTOT"> F  </i>
   <i type="logical" name="LVHAR"> F  </i>
   <i type="logical" name="LELF"> F  </i>
   <i type="logical" name="LOPTICS"> F  </i>
   <v name="STM">      0.00000000      0.00000000      0.00000000      0.00000000      0.00000000      0.00000000      0.00000000</v>
  </separator>
  <separator name="performance" >
   <i type="int" name="NPAR">    11</i>
   <i type="int" name="NSIM">     4</i>
   <i type="int" name="NBLK">    -1</i>
   <i type="logical" name="LPLANE"> T  </i>
   <i type="logical" name="LSCALAPACK"> T  </i>
   <i type="logical" name="LSCAAWARE"> F  </i>
   <i type="logical" name="LSCALU"> F  </i>
   <i type="logical" name="LASYNC"> F  </i>
   <i type="logical" name="LORBITALREAL"> F  </i>
  </separator>
  <separator name="miscellaneous" >
   <i type="int" name="IDIOT">     3</i>
   <i type="int" name="PHON_NSTRUCT">    -1</i>
   <i type="logical" name="LMUSIC"> F  </i>
   <v name="POMASS">    208.98000000    121.75000000</v>
   <v name="DARWINR">      0.00000000      0.00000000</v>
   <v name="DARWINV">      1.00000000      1.00000000</v>
   <i type="logical" name="LCORR"> T  </i>
  </separator>
  <i type="logical" name="GGA_COMPAT"> T  </i>
  <i type="logical" name="LBERRY"> F  </i>
  <i type="int" name="ICORELEVEL">     0</i>
  <i type="logical" name="LDAU"> F  </i>
  <i type="int" name="I_CONSTRAINED_M">     0</i>
  <separator name="electronic exchange-correlation" >
   <i type="string" name="GGA    ">PE</i>
   <i type="string" name="XC_C">1</i>
   <i type="int" name="VOSKOWN">     0</i>
   <i type="logical" name="LHFCALC"> F  </i>
   <i type="string" name="PRECFOCK"></i>
   <i type="logical" name="LSYMGRAD"> F  </i>
   <i type="logical" name="LHFONE"> F  </i>
   <i type="logical" name="LRHFCALC"> F  </i>
   <i type="logical" name="LTHOMAS"> F  </i>
   <i type="logical" name="LMODELHF"> F  </i>
   <i type="logical" name="LFOCKACE"> F  </i>
   <i name="ENCUT4O">     -1.00000000</i>
   <i type="int" name="EXXOEP">     0</i>
   <i type="int" name="FOURORBIT">     0</i>
   <i name="AEXX">      0.00000000</i>
   <i name="HFALPHA">      0.00000000</i>
   <i name="MCALPHA">      0.00000000</i>
   <i name="ALDAX">      1.00000000</i>
   <i name="AGGAX">      1.00000000</i>
   <i name="AMGGAX">      1.00000000</i>
   <i name="ALDAC">      1.00000000</i>
   <i name="AGGAC">      1.00000000</i>
   <i name="AMGGAC">      1.00000000</i>
   <i type="int" name="NKREDX">     1</i>
   <i type="int" name="NKREDY">     1</i>
   <i type="int" name="NKREDZ">     1</i>
   <i type="logical" name="SHIFTRED"> F  </i>
   <i type="logical" name="ODDONLY"> F  </i>
   <i type="logical" name="EVENONLY"> F  </i>
   <i type="int" name="LMAXFOCK">     0</i>
   <i type="int" name="NMAXFOCKAE">     0</i>
   <i type="logical" name="LFOCKAEDFT"> F  </i>
   <i name="HFSCREEN">      0.00000000</i>
   <i name="HFSCREENC">      0.00000000</i>
   <i type="int" name="NBANDSGWLOW">     0</i>
  </separator>
  <separator name="vdW DFT" >
   <i type="logical" name="LUSE_VDW"> F  </i>
   <i type="int" name="IVDW_NL">    -1</i>
   <i type="logical" name="LSPIN_VDW"> F  </i>
   <i name="ZAB_VDW">     -0.84910000</i>
   <i name="GAMMA_VDW">      1.39626340</i>
   <i name="ALPHA_VDW">      0.00000000</i>
   <i name="PARAM1">      0.12340000</i>
   <i name="PARAM2">      1.00000000</i>
   <i name="BPARAM">      6.30000000</i>
   <i name="CPARAM">      0.00930000</i>
  </separator>
  <separator name="model GW" >
   <i type="int" name="MODEL_GW">     0</i>
   <i name="MODEL_EPS0">    125.74688864</i>
   <i name="MODEL_ALPHA">      1.00000000</i>
  </separator>
  <separator name="linear response parameters" >
   <i type="logical" name="LEPSILON"> F  </i>
   <i type="logical" name="LRPA"> F  </i>
   <i type="logical" name="LNABLA"> F  </i>
   <i type="logical" name="LVEL"> F  </i>
   <i name="CSHIFT">      0.10000000</i>
   <i name="OMEGAMAX">     -1.00000000</i>
   <i name="DEG_THRESHOLD">      0.00200000</i>
   <i name="RTIME">     -0.10000000</i>
   <i name="WPLASMAI">      0.00000000</i>
   <v name="DFIELD">      0.00000000      0.00000000      0.00000000</v>
   <v name="WPLASMA">      0.00000000      0.00000000      0.00000000      0.00000000      0.00000000      0.00000000      0.00000000      0.00000000      0.00000000</v>
  </separator>
  <separator name="orbital magnetization" >
   <i type="logical" name="NUCIND"> F  </i>
   <v name="MAGPOS">      0.00000000      0.00000000      0.00000000</v>
   <i type="logical" name="LNICSALL"> T  </i>
   <i type="logical" name="ORBITALMAG"> F  </i>
   <i type="logical" name="LMAGBLOCH"> F  </i>
   <i type="logical" name="LCHIMAG"> F  </i>
   <i type="logical" name="LGAUGE"> T  </i>
   <i type="int" name="MAGATOM">     0</i>
   <v name="MAGDIPOL">      0.00000000      0.00000000      0.00000000</v>
   <v name="AVECCONST">      0.00000000      0.00000000      0.00000000</v>
  </separator>
  <separator name="response functions" >
   <i type="logical" name="LALL_IN_ONE"> F  </i>
   <i type="int" name="IALL_IN_ONE">    -1</i>
   <i type="int" name="NBANDS_WAVE">    -1</i>
   <i type="logical" name="LFINITE_TEMPERATURE"> F  </i>
   <i type="logical" name="LADDER"> F  </i>
   <i type="logical" name="LRPAFORCE"> F  </i>
   <i type="logical" name="LFXC"> F  </i>
   <i type="logical" name="LHARTREE"> T  </i>
   <i type="int" name="IBSE">     0</i>
   <v type="int" name="KPOINT">    -1     0     0     0</v>
   <i type="logical" name="LTCTC"> F  </i>
   <i type="logical" name="LTCTE"> F  </i>
   <i type="logical" name="LTETE"> F  </i>
   <i type="logical" name="LTRIPLET"> F  </i>
   <i type="logical" name="LFXCEPS"> F  </i>
   <i type="logical" name="LFXHEG"> F  </i>
   <i type="int" name="NATURALO">     2</i>
   <i type="logical" name="LHOLEGF"> F  </i>
   <i type="logical" name="L2ORDER"> F  </i>
   <i type="logical" name="LDMP1"> F  </i>
   <i type="logical" name="LMP2LT"> F  </i>
   <i type="logical" name="LSMP2LT"> F  </i>
   <i type="logical" name="LGWLF"> F  </i>
   <i name="ENCUTGW">     -1.60000002</i>
   <i name="ENCUTGWSOFT">     -1.60000002</i>
   <i name="ENCUTLF">     -1.00000000</i>
   <i type="logical" name="ESF_SPLINES"> F  </i>
   <i name="ESF_CONV">      0.01000000</i>
   <i type="int" name="ESF_NINTER">    15</i>
   <i type="int" name="LMAXMP2">    -1</i>
   <i name="SCISSOR">      0.00000000</i>
   <i type="int" name="NOMEGA">     0</i>
   <i type="int" name="NOMEGAR">     0</i>
   <i type="int" name="NBANDSGW">    -1</i>
   <i type="int" name="NBANDSO">    -1</i>
   <i type="int" name="NBANDSV">    -1</i>
   <i type="int" name="NELMGW">     1</i>
   <i type="int" name="NELMHF">     1</i>
   <i type="int" name="DIM">     3</i>
   <i type="int" name="IESPILON">     4</i>
   <i type="int" name="ANTIRES">     0</i>
   <i name="OMEGAMAX">    -30.00000000</i>
   <i name="OMEGAMIN">    -30.00000000</i>
   <i name="OMEGATL">   -200.00000000</i>
   <i type="int" name="OMEGAGRID">     0</i>
   <i name="CSHIFT">     -0.10000000</i>
   <i type="logical" name="LSELFENERGY"> F  </i>
   <i type="logical" name="LSPECTRAL"> F  </i>
   <i type="logical" name="LSPECTRALGW"> F  </i>
   <i type="logical" name="LSINGLES"> F  </i>
   <i type="logical" name="LFERMIGW"> F  </i>
   <i type="logical" name="ODDONLYGW"> F  </i>
   <i type="logical" name="EVENONLYGW"> F  </i>
   <i type="int" name="NKREDLFX">     1</i>
   <i type="int" name="NKREDLFY">     1</i>
   <i type="int" name="NKREDLFZ">     1</i>
   <i type="int" name="MAXMEM">  2800</i>
   <i type="int" name="TELESCOPE">     0</i>
   <i type="int" name="NTAUPAR">    -1</i>
   <i type="int" name="NOMEGAPAR">    -1</i>
   <i name="DAMP_NEWTON">      0.80000001</i>
   <i name="LAMBDA">      1.00000000</i>
  </separator>
  <separator name="External order field" >
   <i name="OFIELD_KAPPA">      0.00000000</i>
   <v name="OFIELD_K">      0.00000000      0.00000000      0.00000000</v>
   <i name="OFIELD_Q6_NEAR">      0.00000000</i>
   <i name="OFIELD_Q6_FAR">      0.00000000</i>
   <i name="OFIELD_A">      0.00000000</i>
  </separator>
  <separator name="optional k-points parameters" >
   <i type="int" name="KPOINTS_OPT_MODE">     1</i>
   <i type="logical" name="LKPOINTS_OPT"> F  </i>
  </separator>
 </parameters>
 <atominfo>
  <atoms>      50 </atoms>
  <types>       2 </types>
  <array name="atoms" >
   <dimension dim="1">ion</dimension>
   <field type="string">element</field>
   <field type="int">atomtype</field>
   <set>
    <rc><c>Bi</c><c>   1</c></rc>
    <rc><c>Bi</c><c>   1</c></rc>
    <rc><c>Bi</c><c>   1</c></rc>
    <rc><c>Bi</c><c>   1</c></rc>
    <rc><c>Bi</c><c>   1</c></rc>
    <rc><c>Bi</c><c>   1</c></rc>
    <rc><c>Bi</c><c>   1</c></rc>
    <rc><c>Bi</c><c>   1</c></rc>
    <rc><c>Bi</c><c>   1</c></rc>
    <rc><c>Bi</c><c>   1</c></rc>
    <rc><c>Bi</c><c>   1</c></rc>
    <rc><c>Bi</c><c>   1</c></rc>
    <rc><c>Bi</c><c>   1</c></rc>
    <rc><c>Bi</c><c>   1</c></rc>
    <rc><c>Bi</c><c>   1</c></rc>
    <rc><c>Bi</c><c>   1</c></rc>
    <rc><c>Bi</c><c>   1</c></rc>
    <rc><c>Bi</c><c>   1</c></rc>
    <rc><c>Bi</c><c>   1</c></rc>
    <rc><c>Bi</c><c>   1</c></rc>
    <rc><c>Bi</c><c>   1</c></rc>
    <rc><c>Bi</c><c>   1</c></rc>
    <rc><c>Bi</c><c>   1</c></rc>
    <rc><c>Bi</c><c>   1</c></rc>
    <rc><c>Bi</c><c>   1</c></rc>
    <rc><c>Sb</c><c>   2</c></rc>
    <rc><c>Sb</c><c>   2</c></rc>
    <rc><c>Sb</c><c>   2</c></rc>
    <rc><c>Sb</c><c>   2</c></rc>
    <rc><c>Sb</c><c>   2</c></rc>
    <rc><c>Sb</c><c>   2</c></rc>
    <rc><c>Sb</c><c>   2</c></rc>
    <rc><c>Sb</c><c>   2</c></rc>
    <rc><c>Sb</c><c>   2</c></rc>
    <rc><c>Sb</c><c>   2</c></rc>
    <rc><c>Sb</c><c>   2</c></rc>
    <rc><c>Sb</c><c>   2</c></rc>
    <rc><c>Sb</c><c>   2</c></rc>
    <rc><c>Sb</c><c>   2</c></rc>
    <rc><c>Sb</c><c>   2</c></rc>
    <rc><c>Sb</c><c>   2</c></rc>
    <rc><c>Sb</c><c>   2</c></rc>
    <rc><c>Sb</c><c>   2</c></rc>
    <rc><c>Sb</c><c>   2</c></rc>
    <rc><c>Sb</c><c>   2</c></rc>
    <rc><c>Sb</c><c>   2</c></rc>
    <rc><c>Sb</c><c>   2</c></rc>
    <rc><c>Sb</c><c>   2</c></rc>
    <rc><c>Sb</c><c>   2</c></rc>
    <rc><c>Sb</c><c>   2</c></rc>
   </set>
  </array>
  <array name="atomtypes" >
   <dimension dim="1">type</dimension>
   <field type="int">atomspertype</field>
   <field type="string">element</field>
   <field>mass</field>
   <field>valence</field>
   <field type="string">pseudopotential</field>
   <set>
    <rc><c>  25</c><c>Bi</c><c>    208.98000000</c><c>     15.00000000</c><c> PAW_PBE Bi_d 06Sep2000                 </c></rc>
    <rc><c>  25</c><c>Sb</c><c>    121.75000000</c><c>      5.00000000</c><c> PAW_PBE Sb 06Sep2000                   </c></rc>
   </set>
  </array>
 </atominfo>
 <structure name="initialpos" >
  <crystal>
   <varray name="basis" >
    <v>      21.32465726      -0.00000000       0.00000000 </v>
    <v>     -10.66232863      18.46769492       0.00000000 </v>
    <v>       0.00000000       0.00000000      26.60855257 </v>
   </varray>
   <i name="volume">  10478.90738675 </i>
   <varray name="rec_basis" >
    <v>       0.04689407       0.02707430      -0.00000000 </v>
    <v>       0.00000000       0.05414861      -0.00000000 </v>
    <v>       0.00000000       0.00000000       0.03758190 </v>
   </varray>
  </crystal>
  <varray name="positions" >
   <v>       0.13362660       0.06666667       0.53194385 </v>
   <v>       0.33333333       0.06666667       0.53165059 </v>
   <v>       0.53333333       0.06666667       0.53165059 </v>
   <v>       0.73333333       0.06666667       0.53165059 </v>
   <v>       0.93333333       0.06666667       0.53165059 </v>
   <v>       0.13333333       0.26666667       0.53165059 </v>
   <v>       0.33333333       0.26666667       0.53165059 </v>
   <v>       0.53333333       0.26666667       0.53165059 </v>
   <v>       0.73333333       0.26666667       0.53165059 </v>
   <v>       0.93333333       0.26666667       0.53165059 </v>
   <v>       0.13333333       0.46666667       0.53165059 </v>
   <v>       0.33333333       0.46666667       0.53165059 </v>
   <v>       0.53333333       0.46666667       0.53165059 </v>
   <v>       0.73333333       0.46666667       0.53165059 </v>
   <v>       0.93333333       0.46666667       0.53165059 </v>
   <v>       0.13333333       0.66666667       0.53165059 </v>
   <v>       0.33333333       0.66666667       0.53165059 </v>
   <v>       0.53333333       0.66666667       0.53165059 </v>
   <v>       0.73333333       0.66666667       0.53165059 </v>
   <v>       0.93333333       0.66666667       0.53165059 </v>
   <v>       0.13333333       0.86666667       0.53165059 </v>
   <v>       0.33333333       0.86666667       0.53165059 </v>
   <v>       0.53333333       0.86666667       0.53165059 </v>
   <v>       0.73333333       0.86666667       0.53165059 </v>
   <v>       0.93333333       0.86666667       0.53165059 </v>
   <v>       0.06666667       0.13333333       0.46834941 </v>
   <v>       0.26666667       0.13333333       0.46834941 </v>
   <v>       0.46666667       0.13333333       0.46834941 </v>
   <v>       0.66666667       0.13333333       0.46834941 </v>
   <v>       0.86666667       0.13333333       0.46834941 </v>
   <v>       0.06666667       0.33333333       0.46834941 </v>
   <v>       0.26666667       0.33333333       0.46834941 </v>
   <v>       0.46666667       0.33333333       0.46834941 </v>
   <v>       0.66666667       0.33333333       0.46834941 </v>
   <v>       0.86666667       0.33333333       0.46834941 </v>
   <v>       0.06666667       0.53333333       0.46834941 </v>
   <v>       0.26666667       0.53333333       0.46834941 </v>
   <v>       0.46666667       0.53333333       0.46834941 </v>
   <v>       0.66666667       0.53333333       0.46834941 </v>
   <v>       0.86666667       0.53333333       0.46834941 </v>
   <v>       0.06666667       0.73333333       0.46834941 </v>
   <v>       0.26666667       0.73333333       0.46834941 </v>
   <v>       0.46666667       0.73333333       0.46834941 </v>
   <v>       0.66666667       0.73333333       0.46834941 </v>
   <v>       0.86666667       0.73333333       0.46834941 </v>
   <v>       0.06666667       0.93333333       0.46834941 </v>
   <v>       0.26666667       0.93333333       0.46834941 </v>
   <v>       0.46666667       0.93333333       0.46834941 </v>
   <v>       0.66666667       0.93333333       0.46834941 </v>
   <v>       0.86666667       0.93333333       0.46834941 </v>
  </varray>
 </structure>
 <calculation>
  <scstep>
   <time name="dav">  128.36  129.64</time>
   <time name="total">  129.34  130.63</time>
   <energy>
    <i name="alphaZ">    121.62916447 </i>
    <i name="ewald">  64943.13338874 </i>
    <i name="hartreedc">-111652.75278578 </i>
    <i name="XCdc">     42.39722541 </i>
    <i name="pawpsdc">  37764.27714653 </i>
    <i name="pawaedc"> -35668.03311435 </i>
    <i name="eentropy">     -0.05637616 </i>
    <i name="bandstr">  -4220.09866789 </i>
    <i name="atom">  52710.29375111 </i>
    <i name="e_fr_energy">   4040.78973209 </i>
    <i name="e_wo_entrp">   4040.84610825 </i>
    <i name="e_0_energy">   4040.81792017 </i>
   </energy>
  </scstep>
  <scstep>
   <time name="dav">  129.94  131.24</time>
   <time name="total">  129.94  131.24</time>
   <energy>
    <i name="e_fr_energy">    211.57878390 </i>
    <i name="e_wo_entrp">    211.57878390 </i>
    <i name="e_0_energy">    211.57878390 </i>
   </energy>
  </scstep>
  <scstep>
   <time name="dav">  118.34  119.52</time>
   <time name="total">  118.34  119.52</time>
   <energy>
    <i name="e_fr_energy">   -183.83889317 </i>
    <i name="e_wo_entrp">   -183.83889317 </i>
    <i name="e_0_energy">   -183.83889317 </i>
   </energy>
  </scstep>
  <scstep>
   <time name="dav">  116.42  117.59</time>
   <time name="total">  116.42  117.59</time>
   <energy>
    <i name="e_fr_energy">   -199.76317933 </i>
    <i name="e_wo_entrp">   -199.76317933 </i>
    <i name="e_0_energy">   -199.76317933 </i>
   </energy>
  </scstep>
  <scstep>
   <time name="dav">  141.10  142.52</time>
   <time name="total">  146.69  148.15</time>
   <energy>
    <i name="e_fr_energy">   -200.67312417 </i>
    <i name="e_wo_entrp">   -200.67312417 </i>
    <i name="e_0_energy">   -200.67312417 </i>
   </energy>
  </scstep>
  <scstep>
   <time name="dav">  116.61  117.77</time>
   <time name="total">  123.17  124.38</time>
   <energy>
    <i name="e_fr_energy">   -199.17434296 </i>
    <i name="e_wo_entrp">   -199.17434296 </i>
    <i name="e_0_energy">   -199.17434296 </i>
   </energy>
  </scstep>
  <scstep>
   <time name="dav">  121.77  122.99</time>
   <time name="total">  128.32  129.58</time>
   <energy>
    <i name="e_fr_energy">   -198.86091310 </i>
    <i name="e_wo_entrp">   -198.86091310 </i>
    <i name="e_0_energy">   -198.86091310 </i>
   </energy>
  </scstep>
  <scstep>
   <time name="dav">  116.18  117.34</time>
   <time name="total">  122.74  123.95</time>
   <energy>
    <i name="e_fr_energy">   -198.73176718 </i>
    <i name="e_wo_entrp">   -198.73176718 </i>
    <i name="e_0_energy">   -198.73176718 </i>
   </energy>
  </scstep>
  <scstep>
   <time name="dav">  119.17  120.35</time>
   <time name="total">  125.73  126.96</time>
   <energy>
    <i name="e_fr_energy">   -198.72243060 </i>
    <i name="e_wo_entrp">   -198.72243060 </i>
    <i name="e_0_energy">   -198.72243060 </i>
   </energy>
  </scstep>
  <scstep>
   <time name="dav">  121.72  122.93</time>
   <time name="total">  128.28  129.54</time>
   <energy>
    <i name="e_fr_energy">   -198.71033026 </i>
    <i name="e_wo_entrp">   -198.71033026 </i>
    <i name="e_0_energy">   -198.71033026 </i>
   </energy>
  </scstep>
  <scstep>
   <time name="dav">  135.12  136.47</time>
   <time name="total">  141.69  143.08</time>
   <energy>
    <i name="e_fr_energy">   -198.71109009 </i>
    <i name="e_wo_entrp">   -198.71109009 </i>
    <i name="e_0_energy">   -198.71109009 </i>
   </energy>
  </scstep>
  <scstep>
   <time name="dav">  113.36  114.50</time>
   <time name="total">  119.93  121.10</time>
   <energy>
    <i name="e_fr_energy">   -198.71143612 </i>
    <i name="e_wo_entrp">   -198.71143612 </i>
    <i name="e_0_energy">   -198.71143612 </i>
   </energy>
  </scstep>
  <scstep>
   <time name="dav">  113.29  114.42</time>
   <time name="total">  119.86  121.02</time>
   <energy>
    <i name="e_fr_energy">   -198.71316052 </i>
    <i name="e_wo_entrp">   -198.71316052 </i>
    <i name="e_0_energy">   -198.71316052 </i>
   </energy>
  </scstep>
  <scstep>
   <time name="dav">  113.35  114.48</time>
   <time name="total">  119.91  121.08</time>
   <energy>
    <i name="e_fr_energy">   -198.71626424 </i>
    <i name="e_wo_entrp">   -198.71626424 </i>
    <i name="e_0_energy">   -198.71626424 </i>
   </energy>
  </scstep>
  <scstep>
   <time name="dav">  114.89  116.03</time>
   <time name="total">  121.45  122.64</time>
   <energy>
    <i name="e_fr_energy">   -198.71781667 </i>
    <i name="e_wo_entrp">   -198.71781667 </i>
    <i name="e_0_energy">   -198.71781667 </i>
   </energy>
  </scstep>
  <scstep>
   <time name="dav">  118.16  119.33</time>
   <time name="total">  124.71  125.93</time>
   <energy>
    <i name="e_fr_energy">   -198.71848821 </i>
    <i name="e_wo_entrp">   -198.71848821 </i>
    <i name="e_0_energy">   -198.71848821 </i>
   </energy>
  </scstep>
  <scstep>
   <time name="dav">  127.86  129.13</time>
   <time name="total">  134.40  135.71</time>
   <energy>
    <i name="e_fr_energy">   -198.71932459 </i>
    <i name="e_wo_entrp">   -198.71932459 </i>
    <i name="e_0_energy">   -198.71932459 </i>
   </energy>
  </scstep>
  <scstep>
   <time name="dav">  115.50  116.66</time>
   <time name="total">  122.07  123.27</time>
   <energy>
    <i name="e_fr_energy">   -198.71953390 </i>
    <i name="e_wo_entrp">   -198.71953390 </i>
    <i name="e_0_energy">   -198.71953390 </i>
   </energy>
  </scstep>
  <scstep>
   <time name="dav">  123.29  124.52</time>
   <time name="total">  129.85  131.12</time>
   <energy>
    <i name="e_fr_energy">   -198.71967361 </i>
    <i name="e_wo_entrp">   -198.71967361 </i>
    <i name="e_0_energy">   -198.71967361 </i>
   </energy>
  </scstep>
  <scstep>
   <time name="dav">  116.25  117.41</time>
   <time name="total">  122.81  124.01</time>
   <energy>
    <i name="e_fr_energy">   -198.71972278 </i>
    <i name="e_wo_entrp">   -198.71972278 </i>
    <i name="e_0_energy">   -198.71972278 </i>
   </energy>
  </scstep>
  <scstep>
   <time name="dav">   94.05   94.99</time>
   <time name="total">  100.60  101.58</time>
   <energy>
    <i name="e_fr_energy">   -198.71976747 </i>
    <i name="e_wo_entrp">   -198.71976747 </i>
    <i name="e_0_energy">   -198.71976747 </i>
   </energy>
  </scstep>
  <scstep>
   <time name="dav">   94.43   95.36</time>
   <time name="total">  100.98  101.95</time>
   <energy>
    <i name="e_fr_energy">   -198.71977767 </i>
    <i name="e_wo_entrp">   -198.71977767 </i>
    <i name="e_0_energy">   -198.71977767 </i>
   </energy>
  </scstep>
  <scstep>
   <time name="dav">   89.98   90.87</time>
   <time name="total">   96.53   97.47</time>
   <energy>
    <i name="e_fr_energy">   -198.71978220 </i>
    <i name="e_wo_entrp">   -198.71978220 </i>
    <i name="e_0_energy">   -198.71978220 </i>
   </energy>
  </scstep>
  <scstep>
   <time name="dav">   88.81   89.70</time>
   <time name="total">   95.36   96.29</time>
   <energy>
    <i name="e_fr_energy">   -198.71978389 </i>
    <i name="e_wo_entrp">   -198.71978389 </i>
    <i name="e_0_energy">   -198.71978389 </i>
   </energy>
  </scstep>
  <scstep>
   <time name="dav">   86.79   87.65</time>
   <time name="total">   93.35   94.25</time>
   <energy>
    <i name="e_fr_energy">   -198.71978441 </i>
    <i name="e_wo_entrp">   -198.71978441 </i>
    <i name="e_0_energy">   -198.71978441 </i>
   </energy>
  </scstep>
  <scstep>
   <time name="dav">   85.41   86.26</time>
   <time name="total">   91.98   92.87</time>
   <energy>
    <i name="e_fr_energy">   -198.71978468 </i>
    <i name="e_wo_entrp">   -198.71978468 </i>
    <i name="e_0_energy">   -198.71978468 </i>
   </energy>
  </scstep>
  <scstep>
   <time name="dav">   86.18   87.04</time>
   <time name="total">   92.74   93.64</time>
   <energy>
    <i name="e_fr_energy">   -198.71978479 </i>
    <i name="e_wo_entrp">   -198.71978479 </i>
    <i name="e_0_energy">   -198.71978479 </i>
   </energy>
  </scstep>
  <scstep>
   <time name="dav">   83.90   84.73</time>
   <time name="total">   90.51   91.38</time>
   <energy>
    <i name="e_fr_energy">   -198.71978485 </i>
    <i name="e_wo_entrp">   -198.71978485 </i>
    <i name="e_0_energy">   -198.71978485 </i>
   </energy>
  </scstep>
  <scstep>
   <time name="dav">   76.02   76.77</time>
   <time name="total">   82.58   83.37</time>
   <energy>
    <i name="e_fr_energy">   -198.71978486 </i>
    <i name="e_wo_entrp">   -198.71978486 </i>
    <i name="e_0_energy">   -198.71978486 </i>
   </energy>
  </scstep>
  <scstep>
   <time name="dav">   74.39   75.13</time>
   <time name="total">   75.34   76.08</time>
   <energy>
    <i name="alphaZ">    121.62916447 </i>
    <i name="ewald">  64943.13338874 </i>
    <i name="hartreedc">-111900.59730874 </i>
    <i name="XCdc">     48.32825891 </i>
    <i name="pawpsdc">  38326.71720785 </i>
    <i name="pawaedc"> -36250.54093621 </i>
    <i name="eentropy">     -0.00000000 </i>
    <i name="bandstr">  -8197.68331100 </i>
    <i name="atom">  52710.29375111 </i>
    <i name="e_fr_energy">   -198.71978487 </i>
    <i name="e_wo_entrp">   -198.71978487 </i>
    <i name="e_0_energy">   -198.71978487 </i>
   </energy>
  </scstep>
  <structure>
   <crystal>
    <varray name="basis" >
     <v>      21.32465726      -0.00000000       0.00000000 </v>
     <v>     -10.66232863      18.46769492       0.00000000 </v>
     <v>       0.00000000       0.00000000      26.60855257 </v>
    </varray>
    <i name="volume">  10478.90738675 </i>
    <varray name="rec_basis" >
     <v>       0.04689407       0.02707430      -0.00000000 </v>
     <v>       0.00000000       0.05414861      -0.00000000 </v>
     <v>       0.00000000       0.00000000       0.03758190 </v>
    </varray>
   </crystal>
   <varray name="positions" >
    <v>       0.13362660       0.06666667       0.53194385 </v>
    <v>       0.33333333       0.06666667       0.53165059 </v>
    <v>       0.53333333       0.06666667       0.53165059 </v>
    <v>       0.73333333       0.06666667       0.53165059 </v>
    <v>       0.93333333       0.06666667       0.53165059 </v>
    <v>       0.13333333       0.26666667       0.53165059 </v>
    <v>       0.33333333       0.26666667       0.53165059 </v>
    <v>       0.53333333       0.26666667       0.53165059 </v>
    <v>       0.73333333       0.26666667       0.53165059 </v>
    <v>       0.93333333       0.26666667       0.53165059 </v>
    <v>       0.13333333       0.46666667       0.53165059 </v>
    <v>       0.33333333       0.46666667       0.53165059 </v>
    <v>       0.53333333       0.46666667       0.53165059 </v>
    <v>       0.73333333       0.46666667       0.53165059 </v>
    <v>       0.93333333       0.46666667       0.53165059 </v>
    <v>       0.13333333       0.66666667       0.53165059 </v>
    <v>       0.33333333       0.66666667       0.53165059 </v>
    <v>       0.53333333       0.66666667       0.53165059 </v>
    <v>       0.73333333       0.66666667       0.53165059 </v>
    <v>       0.93333333       0.66666667       0.53165059 </v>
    <v>       0.13333333       0.86666667       0.53165059 </v>
    <v>       0.33333333       0.86666667       0.53165059 </v>
    <v>       0.53333333       0.86666667       0.53165059 </v>
    <v>       0.73333333       0.86666667       0.53165059 </v>
    <v>       0.93333333       0.86666667       0.53165059 </v>
    <v>       0.06666667       0.13333333       0.46834941 </v>
    <v>       0.26666667       0.13333333       0.46834941 </v>
    <v>       0.46666667       0.13333333       0.46834941 </v>
    <v>       0.66666667       0.13333333       0.46834941 </v>
    <v>       0.86666667       0.13333333       0.46834941 </v>
    <v>       0.06666667       0.33333333       0.46834941 </v>
    <v>       0.26666667       0.33333333       0.46834941 </v>
    <v>       0.46666667       0.33333333       0.46834941 </v>
    <v>       0.66666667       0.33333333       0.46834941 </v>
    <v>       0.86666667       0.33333333       0.46834941 </v>
    <v>       0.06666667       0.53333333       0.46834941 </v>
    <v>       0.26666667       0.53333333       0.46834941 </v>
    <v>       0.46666667       0.53333333       0.46834941 </v>
    <v>       0.66666667       0.53333333       0.46834941 </v>
    <v>       0.86666667       0.53333333       0.46834941 </v>
    <v>       0.06666667       0.73333333       0.46834941 </v>
    <v>       0.26666667       0.73333333       0.46834941 </v>
    <v>       0.46666667       0.73333333       0.46834941 </v>
    <v>       0.66666667       0.73333333       0.46834941 </v>
    <v>       0.86666667       0.73333333       0.46834941 </v>
    <v>       0.06666667       0.93333333       0.46834941 </v>
    <v>       0.26666667       0.93333333       0.46834941 </v>
    <v>       0.46666667       0.93333333       0.46834941 </v>
    <v>       0.66666667       0.93333333       0.46834941 </v>
    <v>       0.86666667       0.93333333       0.46834941 </v>
   </varray>
  </structure>
  <varray name="forces" >
   <v>      -0.03197406      -0.00016416      -0.11597002 </v>
   <v>       0.00126057       0.00102423      -0.06763097 </v>
   <v>       0.00007675       0.00029754      -0.06639184 </v>
   <v>      -0.00003593       0.00014896      -0.06629969 </v>
   <v>       0.00080306       0.00104878      -0.06725782 </v>
   <v>      -0.00122553      -0.00105724      -0.06806675 </v>
   <v>       0.00079558       0.00041413      -0.06682008 </v>
   <v>       0.00002816      -0.00003644      -0.06606382 </v>
   <v>       0.00000936       0.00000030      -0.06600523 </v>
   <v>       0.00009572      -0.00000220      -0.06602889 </v>
   <v>      -0.00036515      -0.00008406      -0.06647725 </v>
   <v>       0.00009026       0.00002440      -0.06604597 </v>
   <v>       0.00007708      -0.00004048      -0.06621433 </v>
   <v>       0.00002512      -0.00000873      -0.06601012 </v>
   <v>       0.00002516       0.00000950      -0.06600021 </v>
   <v>      -0.00030984      -0.00032840      -0.06652356 </v>
   <v>       0.00003095       0.00001302      -0.06600520 </v>
   <v>       0.00001853      -0.00000506      -0.06600507 </v>
   <v>       0.00001981       0.00000882      -0.06616830 </v>
   <v>       0.00009166       0.00003947      -0.06604614 </v>
   <v>      -0.00100247      -0.00141961      -0.06825332 </v>
   <v>       0.00008210       0.00000508      -0.06601945 </v>
   <v>       0.00000917      -0.00000669      -0.06600522 </v>
   <v>       0.00004050      -0.00002824      -0.06607323 </v>
   <v>       0.00056801      -0.00000517      -0.06663325 </v>
   <v>       0.02888226      -0.01515078       0.09707757 </v>
   <v>      -0.00221104      -0.00276944       0.07282656 </v>
   <v>       0.00084711      -0.00042075       0.06672191 </v>
   <v>       0.00008674      -0.00020102       0.06621459 </v>
   <v>      -0.00005397      -0.00004339       0.06613316 </v>
   <v>      -0.00002265       0.00055686       0.06645981 </v>
   <v>      -0.00008684      -0.00004721       0.06621669 </v>
   <v>       0.00002210       0.00045288       0.06639591 </v>
   <v>      -0.00001293      -0.00000173       0.06600764 </v>
   <v>      -0.00000243      -0.00000416       0.06603770 </v>
   <v>       0.00031310       0.00013081       0.06635573 </v>
   <v>      -0.00006594      -0.00002415       0.06598787 </v>
   <v>      -0.00002110       0.00000467       0.06605112 </v>
   <v>      -0.00003615       0.00007107       0.06607370 </v>
   <v>      -0.00000978       0.00000629       0.06602276 </v>
   <v>       0.00083248      -0.00054738       0.06675398 </v>
   <v>      -0.00006675      -0.00002082       0.06598987 </v>
   <v>      -0.00001180       0.00000022       0.06601095 </v>
   <v>      -0.00002690      -0.00000768       0.06604924 </v>
   <v>      -0.00001934       0.00000321       0.06610129 </v>
   <v>       0.00261354       0.01806987       0.08505547 </v>
   <v>      -0.00010554       0.00001045       0.06616734 </v>
   <v>      -0.00002445       0.00002337       0.06602156 </v>
   <v>      -0.00002956       0.00002550       0.06601768 </v>
   <v>      -0.00002472       0.00003553       0.06626562 </v>
  </varray>
  <varray name="stress" >
   <v>      -1.12526407       0.00321896      -0.00795839 </v>
   <v>       0.00321895      -1.12527285      -0.00003802 </v>
   <v>      -0.00795838      -0.00003802      -0.50202710 </v>
  </varray>
  <energy>
   <i name="e_fr_energy">   -198.71978487 </i>
   <i name="e_wo_entrp">   -198.71978487 </i>
   <i name="e_0_energy">   -198.71978487 </i>
  </energy>
  <time name="totalsc"> 3602.77 3638.26</time>
  <eigenvalues>
   <array>
    <dimension dim="1">band</dimension>
    <dimension dim="2">kpoint</dimension>
    <dimension dim="3">spin</dimension>
    <field>eigene</field>
    <field>occ</field>
    <set>
     <set comment="spin 1">
      <set comment="kpoint 1">
       <r>  -25.2694    1.0000 </r>
       <r>  -25.2693    1.0000 </r>
       <r>  -25.2689    1.0000 </r>
       <r>  -25.2689    1.0000 </r>
       <r>  -25.2688    1.0000 </r>
       <r>  -25.2688    1.0000 </r>
       <r>  -25.2660    1.0000 </r>
       <r>  -25.2660    1.0000 </r>
       <r>  -25.2652    1.0000 </r>
       <r>  -25.2652    1.0000 </r>
       <r>  -25.2652    1.0000 </r>
       <r>  -25.2652    1.0000 </r>
       <r>  -25.2651    1.0000 </r>
       <r>  -25.2650    1.0000 </r>
       <r>  -25.2649    1.0000 </r>
       <r>  -25.2649    1.0000 </r>
       <r>  -25.2649    1.0000 </r>
       <r>  -25.2649    1.0000 </r>
       <r>  -25.2648    1.0000 </r>
       <r>  -25.2648    1.0000 </r>
       <r>  -25.2648    1.0000 </r>
       <r>  -25.2648    1.0000 </r>
       <r>  -25.2647    1.0000 </r>
       <r>  -25.2647    1.0000 </r>
       <r>  -25.2630    1.0000 </r>
       <r>  -25.2629    1.0000 </r>
       <r>  -25.2570    1.0000 </r>
       <r>  -25.2570    1.0000 </r>
       <r>  -25.2567    1.0000 </r>
       <r>  -25.2566    1.0000 </r>
       <r>  -25.2566    1.0000 </r>
       <r>  -25.2566    1.0000 </r>
       <r>  -25.2519    1.0000 </r>
       <r>  -25.2518    1.0000 </r>
       <r>  -25.2516    1.0000 </r>
       <r>  -25.2515    1.0000 </r>
       <r>  -25.2515    1.0000 </r>
       <r>  -25.2514    1.0000 </r>
       <r>  -25.2495    1.0000 </r>
       <r>  -25.2495    1.0000 </r>
       <r>  -25.2493    1.0000 </r>
       <r>  -25.2492    1.0000 </r>
       <r>  -25.2492    1.0000 </r>
       <r>  -25.2491    1.0000 </r>
       <r>  -25.2473    1.0000 </r>
       <r>  -25.2473    1.0000 </r>
       <r>  -25.2471    1.0000 </r>
       <r>  -25.2470    1.0000 </r>
       <r>  -25.2470    1.0000 </r>
       <r>  -25.2470    1.0000 </r>
       <r>  -25.2324    1.0000 </r>
       <r>  -25.2321    1.0000 </r>
       <r>  -25.2313    1.0000 </r>
       <r>  -25.2312    1.0000 </r>
       <r>  -25.2312    1.0000 </r>
       <r>  -25.2311    1.0000 </r>
       <r>  -25.2306    1.0000 </r>
       <r>  -25.2305    1.0000 </r>
       <r>  -25.2302    1.0000 </r>
       <r>  -25.2302    1.0000 </r>
       <r>  -25.2301    1.0000 </r>
       <r>  -25.2301    1.0000 </r>
       <r>  -25.2294    1.0000 </r>
       <r>  -25.2293    1.0000 </r>
       <r>  -25.2290    1.0000 </r>
       <r>  -25.2290    1.0000 </r>
       <r>  -25.2290    1.0000 </r>
       <r>  -25.2290    1.0000 </r>
       <r>  -25.2266    1.0000 </r>
       <r>  -25.2264    1.0000 </r>
       <r>  -25.2260    1.0000 </r>
       <r>  -25.2259    1.0000 </r>
       <r>  -25.2259    1.0000 </r>
       <r>  -25.2258    1.0000 </r>
       <r>  -25.2255    1.0000 </r>
       <r>  -25.2253    1.0000 </r>
       <r>  -25.2252    1.0000 </r>
       <r>  -25.2251    1.0000 </r>
       <r>  -25.2251    1.0000 </r>
       <r>  -25.2250    1.0000 </r>
       <r>  -25.2244    1.0000 </r>
       <r>  -25.2244    1.0000 </r>
       <r>  -25.2242    1.0000 </r>
       <r>  -25.2242    1.0000 </r>
       <r>  -25.2241    1.0000 </r>
       <r>  -25.2241    1.0000 </r>
       <r>  -25.2235    1.0000 </r>
       <r>  -25.2233    1.0000 </r>
       <r>  -25.2231    1.0000 </r>
       <r>  -25.2230    1.0000 </r>
       <r>  -25.2230    1.0000 </r>
       <r>  -25.2230    1.0000 </r>
       <r>  -25.2229    1.0000 </r>
       <r>  -25.2229    1.0000 </r>
       <r>  -25.2229    1.0000 </r>
       <r>  -25.2228    1.0000 </r>
       <r>  -25.2228    1.0000 </r>
       <r>  -25.2227    1.0000 </r>
       <r>  -25.2224    1.0000 </r>
       <r>  -25.2224    1.0000 </r>
       <r>  -25.2133    1.0000 </r>
       <r>  -25.2105    1.0000 </r>
       <r>  -25.2093    1.0000 </r>
       <r>  -25.2093    1.0000 </r>
       <r>  -25.2093    1.0000 </r>
       <r>  -25.2091    1.0000 </r>
       <r>  -25.2091    1.0000 </r>
       <r>  -25.2055    1.0000 </r>
       <r>  -25.2043    1.0000 </r>
       <r>  -25.2043    1.0000 </r>
       <r>  -25.2042    1.0000 </r>
       <r>  -25.2042    1.0000 </r>
       <r>  -25.2041    1.0000 </r>
       <r>  -25.2032    1.0000 </r>
       <r>  -25.2028    1.0000 </r>
       <r>  -25.2028    1.0000 </r>
       <r>  -25.2027    1.0000 </r>
       <r>  -25.2026    1.0000 </r>
       <r>  -25.2026    1.0000 </r>
       <r>  -25.2018    1.0000 </r>
       <r>  -25.2016    1.0000 </r>
       <r>  -25.2015    1.0000 </r>
       <r>  -25.2015    1.0000 </r>
       <r>  -25.2014    1.0000 </r>
       <r>  -25.2013    1.0000 </r>
       <r>  -14.6091    1.0000 </r>
       <r>  -14.2611    1.0000 </r>
       <r>  -14.2608    1.0000 </r>
       <r>  -14.2608    1.0000 </r>
       <r>  -14.2607    1.0000 </r>
       <r>  -14.2606    1.0000 </r>
       <r>  -14.2577    1.0000 </r>
       <r>  -13.6449    1.0000 </r>
       <r>  -13.6445    1.0000 </r>
       <r>  -13.6444    1.0000 </r>
       <r>  -13.6443    1.0000 </r>
       <r>  -13.6443    1.0000 </r>
       <r>  -13.6417    1.0000 </r>
       <r>  -13.4295    1.0000 </r>
       <r>  -13.4292    1.0000 </r>
       <r>  -13.4292    1.0000 </r>
       <r>  -13.4290    1.0000 </r>
       <r>  -13.4290    1.0000 </r>
       <r>  -13.4267    1.0000 </r>
       <r>  -13.0356    1.0000 </r>
       <r>  -13.0356    1.0000 </r>
       <r>  -13.0355    1.0000 </r>
       <r>  -13.0354    1.0000 </r>
       <r>  -13.0353    1.0000 </r>
       <r>  -13.0339    1.0000 </r>
       <r>  -11.0816    1.0000 </r>
       <r>  -11.0811    1.0000 </r>
       <r>  -11.0810    1.0000 </r>
       <r>  -11.0810    1.0000 </r>
       <r>  -11.0808    1.0000 </r>
       <r>  -11.0797    1.0000 </r>
       <r>  -10.7537    1.0000 </r>
       <r>  -10.7523    1.0000 </r>
       <r>  -10.7522    1.0000 </r>
       <r>  -10.7521    1.0000 </r>
       <r>  -10.7518    1.0000 </r>
       <r>  -10.7511    1.0000 </r>
       <r>  -10.5057    1.0000 </r>
       <r>  -10.5037    1.0000 </r>
       <r>  -10.5036    1.0000 </r>
       <r>  -10.5036    1.0000 </r>
       <r>  -10.5035    1.0000 </r>
       <r>  -10.5027    1.0000 </r>
       <r>  -10.0643    1.0000 </r>
       <r>  -10.0608    1.0000 </r>
       <r>  -10.0608    1.0000 </r>
       <r>  -10.0607    1.0000 </r>
       <r>  -10.0606    1.0000 </r>
       <r>  -10.0604    1.0000 </r>
       <r>   -9.9365    1.0000 </r>
       <r>   -5.8731    1.0000 </r>
       <r>   -5.8730    1.0000 </r>
       <r>   -5.8728    1.0000 </r>
       <r>   -5.8727    1.0000 </r>
       <r>   -5.8722    1.0000 </r>
       <r>   -5.8709    1.0000 </r>
       <r>   -5.7650    1.0000 </r>
       <r>   -5.7647    1.0000 </r>
       <r>   -5.7646    1.0000 </r>
       <r>   -5.7644    1.0000 </r>
       <r>   -5.7642    1.0000 </r>
       <r>   -5.7639    1.0000 </r>
       <r>   -5.3648    1.0000 </r>
       <r>   -5.3641    1.0000 </r>
       <r>   -5.3640    1.0000 </r>
       <r>   -5.3640    1.0000 </r>
       <r>   -5.3635    1.0000 </r>
       <r>   -5.3628    1.0000 </r>
       <r>   -5.0531    1.0000 </r>
       <r>   -5.0528    1.0000 </r>
       <r>   -5.0527    1.0000 </r>
       <r>   -5.0525    1.0000 </r>
       <r>   -5.0513    1.0000 </r>
       <r>   -5.0507    1.0000 </r>
       <r>   -4.8852    1.0000 </r>
       <r>   -4.8847    1.0000 </r>
       <r>   -4.8846    1.0000 </r>
       <r>   -4.8844    1.0000 </r>
       <r>   -4.8842    1.0000 </r>
       <r>   -4.8839    1.0000 </r>
       <r>   -4.8539    1.0000 </r>
       <r>   -4.8536    1.0000 </r>
       <r>   -4.8535    1.0000 </r>
       <r>   -4.8531    1.0000 </r>
       <r>   -4.8522    1.0000 </r>
       <r>   -4.8519    1.0000 </r>
       <r>   -4.3586    1.0000 </r>
       <r>   -4.3580    1.0000 </r>
       <r>   -4.3574    1.0000 </r>
       <r>   -4.3573    1.0000 </r>
       <r>   -4.3572    1.0000 </r>
       <r>   -4.3571    1.0000 </r>
       <r>   -4.1912    1.0000 </r>
       <r>   -4.1911    1.0000 </r>
       <r>   -4.1910    1.0000 </r>
       <r>   -4.1908    1.0000 </r>
       <r>   -4.1898    1.0000 </r>
       <r>   -4.1888    1.0000 </r>
       <r>   -4.0868    1.0000 </r>
       <r>   -4.0858    1.0000 </r>
       <r>   -4.0855    1.0000 </r>
       <r>   -4.0852    1.0000 </r>
       <r>   -4.0851    1.0000 </r>
       <r>   -4.0850    1.0000 </r>
       <r>   -3.6098    1.0000 </r>
       <r>   -3.6083    1.0000 </r>
       <r>   -3.6077    1.0000 </r>
       <r>   -3.6077    1.0000 </r>
       <r>   -3.6077    1.0000 </r>
       <r>   -3.6075    1.0000 </r>
       <r>   -3.5014    1.0000 </r>
       <r>   -3.5013    1.0000 </r>
       <r>   -3.5012    1.0000 </r>
       <r>   -3.5010    1.0000 </r>
       <r>   -3.5003    1.0000 </r>
       <r>   -3.4986    1.0000 </r>
       <r>   -3.4351    1.0000 </r>
       <r>   -3.3975    1.0000 </r>
       <r>   -3.3941    1.0000 </r>
       <r>   -3.3940    1.0000 </r>
       <r>   -3.3939    1.0000 </r>
       <r>   -3.3938    1.0000 </r>
       <r>   -3.3938    1.0000 </r>
       <r>   -2.8533    1.0000 </r>
       <r>   -2.8523    1.0000 </r>
       <r>   -1.8952    0.0000 </r>
       <r>   -1.5160    0.0000 </r>
       <r>   -1.5150    0.0000 </r>
       <r>   -1.5144    0.0000 </r>
       <r>   -1.5142    0.0000 </r>
       <r>   -1.5137    0.0000 </r>
       <r>   -1.5135    0.0000 </r>
       <r>   -1.5046    0.0000 </r>
       <r>   -1.5037    0.0000 </r>
       <r>   -1.5033    0.0000 </r>
       <r>   -1.5032    0.0000 </r>
       <r>   -1.5027    0.0000 </r>
       <r>   -1.5022    0.0000 </r>
       <r>   -0.9877    0.0000 </r>
       <r>   -0.9858    0.0000 </r>
       <r>   -0.9848    0.0000 </r>
       <r>   -0.9846    0.0000 </r>
       <r>   -0.9845    0.0000 </r>
       <r>   -0.9845    0.0000 </r>
       <r>   -0.7397    0.0000 </r>
       <r>   -0.7389    0.0000 </r>
       <r>   -0.7382    0.0000 </r>
       <r>   -0.7376    0.0000 </r>
       <r>   -0.7375    0.0000 </r>
       <r>   -0.7374    0.0000 </r>
       <r>   -0.4301    0.0000 </r>
       <r>   -0.4288    0.0000 </r>
       <r>   -0.4277    0.0000 </r>
       <r>   -0.4276    0.0000 </r>
       <r>   -0.4276    0.0000 </r>
       <r>   -0.4274    0.0000 </r>
       <r>   -0.2276    0.0000 </r>
       <r>   -0.2268    0.0000 </r>
       <r>   -0.2262    0.0000 </r>
       <r>   -0.2252    0.0000 </r>
       <r>   -0.2250    0.0000 </r>
       <r>   -0.2248    0.0000 </r>
       <r>   -0.1915    0.0000 </r>
       <r>   -0.1904    0.0000 </r>
       <r>    0.0843    0.0000 </r>
       <r>    0.0862    0.0000 </r>
       <r>    0.0867    0.0000 </r>
       <r>    0.0868    0.0000 </r>
       <r>    0.0870    0.0000 </r>
       <r>    0.0871    0.0000 </r>
       <r>    0.1370    0.0000 </r>
       <r>    0.1372    0.0000 </r>
       <r>    0.1376    0.0000 </r>
       <r>    0.1382    0.0000 </r>
       <r>    0.1383    0.0000 </r>
       <r>    0.1385    0.0000 </r>
       <r>    0.2347    0.0000 </r>
       <r>    0.2349    0.0000 </r>
       <r>    0.2362    0.0000 </r>
       <r>    0.2369    0.0000 </r>
       <r>    0.2371    0.0000 </r>
       <r>    0.2372    0.0000 </r>
       <r>    0.3253    0.0000 </r>
      </set>
      <set comment="kpoint 2">
       <r>  -25.2696    1.0000 </r>
       <r>  -25.2691    1.0000 </r>
       <r>  -25.2690    1.0000 </r>
       <r>  -25.2683    1.0000 </r>
       <r>  -25.2683    1.0000 </r>
       <r>  -25.2681    1.0000 </r>
       <r>  -25.2669    1.0000 </r>
       <r>  -25.2668    1.0000 </r>
       <r>  -25.2661    1.0000 </r>
       <r>  -25.2660    1.0000 </r>
       <r>  -25.2657    1.0000 </r>
       <r>  -25.2655    1.0000 </r>
       <r>  -25.2654    1.0000 </r>
       <r>  -25.2653    1.0000 </r>
       <r>  -25.2653    1.0000 </r>
       <r>  -25.2651    1.0000 </r>
       <r>  -25.2650    1.0000 </r>
       <r>  -25.2649    1.0000 </r>
       <r>  -25.2648    1.0000 </r>
       <r>  -25.2645    1.0000 </r>
       <r>  -25.2644    1.0000 </r>
       <r>  -25.2641    1.0000 </r>
       <r>  -25.2633    1.0000 </r>
       <r>  -25.2632    1.0000 </r>
       <r>  -25.2631    1.0000 </r>
       <r>  -25.2625    1.0000 </r>
       <r>  -25.2592    1.0000 </r>
       <r>  -25.2580    1.0000 </r>
       <r>  -25.2578    1.0000 </r>
       <r>  -25.2554    1.0000 </r>
       <r>  -25.2553    1.0000 </r>
       <r>  -25.2540    1.0000 </r>
       <r>  -25.2527    1.0000 </r>
       <r>  -25.2527    1.0000 </r>
       <r>  -25.2512    1.0000 </r>
       <r>  -25.2510    1.0000 </r>
       <r>  -25.2508    1.0000 </r>
       <r>  -25.2507    1.0000 </r>
       <r>  -25.2505    1.0000 </r>
       <r>  -25.2505    1.0000 </r>
       <r>  -25.2496    1.0000 </r>
       <r>  -25.2494    1.0000 </r>
       <r>  -25.2489    1.0000 </r>
       <r>  -25.2483    1.0000 </r>
       <r>  -25.2481    1.0000 </r>
       <r>  -25.2480    1.0000 </r>
       <r>  -25.2479    1.0000 </r>
       <r>  -25.2467    1.0000 </r>
       <r>  -25.2467    1.0000 </r>
       <r>  -25.2460    1.0000 </r>
       <r>  -25.2325    1.0000 </r>
       <r>  -25.2321    1.0000 </r>
       <r>  -25.2316    1.0000 </r>
       <r>  -25.2311    1.0000 </r>
       <r>  -25.2311    1.0000 </r>
       <r>  -25.2308    1.0000 </r>
       <r>  -25.2308    1.0000 </r>
       <r>  -25.2305    1.0000 </r>
       <r>  -25.2301    1.0000 </r>
       <r>  -25.2301    1.0000 </r>
       <r>  -25.2298    1.0000 </r>
       <r>  -25.2297    1.0000 </r>
       <r>  -25.2295    1.0000 </r>
       <r>  -25.2294    1.0000 </r>
       <r>  -25.2293    1.0000 </r>
       <r>  -25.2292    1.0000 </r>
       <r>  -25.2285    1.0000 </r>
       <r>  -25.2284    1.0000 </r>
       <r>  -25.2276    1.0000 </r>
       <r>  -25.2269    1.0000 </r>
       <r>  -25.2268    1.0000 </r>
       <r>  -25.2262    1.0000 </r>
       <r>  -25.2261    1.0000 </r>
       <r>  -25.2257    1.0000 </r>
       <r>  -25.2254    1.0000 </r>
       <r>  -25.2252    1.0000 </r>
       <r>  -25.2251    1.0000 </r>
       <r>  -25.2249    1.0000 </r>
       <r>  -25.2247    1.0000 </r>
       <r>  -25.2245    1.0000 </r>
       <r>  -25.2244    1.0000 </r>
       <r>  -25.2243    1.0000 </r>
       <r>  -25.2241    1.0000 </r>
       <r>  -25.2240    1.0000 </r>
       <r>  -25.2239    1.0000 </r>
       <r>  -25.2238    1.0000 </r>
       <r>  -25.2235    1.0000 </r>
       <r>  -25.2233    1.0000 </r>
       <r>  -25.2232    1.0000 </r>
       <r>  -25.2231    1.0000 </r>
       <r>  -25.2231    1.0000 </r>
       <r>  -25.2231    1.0000 </r>
       <r>  -25.2230    1.0000 </r>
       <r>  -25.2230    1.0000 </r>
       <r>  -25.2229    1.0000 </r>
       <r>  -25.2229    1.0000 </r>
       <r>  -25.2228    1.0000 </r>
       <r>  -25.2227    1.0000 </r>
       <r>  -25.2226    1.0000 </r>
       <r>  -25.2225    1.0000 </r>
       <r>  -25.2131    1.0000 </r>
       <r>  -25.2112    1.0000 </r>
       <r>  -25.2102    1.0000 </r>
       <r>  -25.2099    1.0000 </r>
       <r>  -25.2087    1.0000 </r>
       <r>  -25.2082    1.0000 </r>
       <r>  -25.2076    1.0000 </r>
       <r>  -25.2061    1.0000 </r>
       <r>  -25.2056    1.0000 </r>
       <r>  -25.2046    1.0000 </r>
       <r>  -25.2041    1.0000 </r>
       <r>  -25.2040    1.0000 </r>
       <r>  -25.2036    1.0000 </r>
       <r>  -25.2033    1.0000 </r>
       <r>  -25.2032    1.0000 </r>
       <r>  -25.2031    1.0000 </r>
       <r>  -25.2024    1.0000 </r>
       <r>  -25.2022    1.0000 </r>
       <r>  -25.2020    1.0000 </r>
       <r>  -25.2018    1.0000 </r>
       <r>  -25.2016    1.0000 </r>
       <r>  -25.2016    1.0000 </r>
       <r>  -25.2016    1.0000 </r>
       <r>  -25.2015    1.0000 </r>
       <r>  -25.2014    1.0000 </r>
       <r>  -14.5866    1.0000 </r>
       <r>  -14.4099    1.0000 </r>
       <r>  -14.3242    1.0000 </r>
       <r>  -14.3233    1.0000 </r>
       <r>  -14.1568    1.0000 </r>
       <r>  -14.1559    1.0000 </r>
       <r>  -14.0756    1.0000 </r>
       <r>  -13.8419    1.0000 </r>
       <r>  -13.8410    1.0000 </r>
       <r>  -13.6408    1.0000 </r>
       <r>  -13.6298    1.0000 </r>
       <r>  -13.6291    1.0000 </r>
       <r>  -13.5183    1.0000 </r>
       <r>  -13.5177    1.0000 </r>
       <r>  -13.4365    1.0000 </r>
       <r>  -13.4356    1.0000 </r>
       <r>  -13.3263    1.0000 </r>
       <r>  -13.3258    1.0000 </r>
       <r>  -13.2670    1.0000 </r>
       <r>  -13.1182    1.0000 </r>
       <r>  -13.1178    1.0000 </r>
       <r>  -13.0924    1.0000 </r>
       <r>  -13.0916    1.0000 </r>
       <r>  -12.9811    1.0000 </r>
       <r>  -12.9808    1.0000 </r>
       <r>  -11.1151    1.0000 </r>
       <r>  -11.1146    1.0000 </r>
       <r>  -11.0248    1.0000 </r>
       <r>  -11.0242    1.0000 </r>
       <r>  -11.0239    1.0000 </r>
       <r>  -11.0233    1.0000 </r>
       <r>  -10.9215    1.0000 </r>
       <r>  -10.8527    1.0000 </r>
       <r>  -10.8520    1.0000 </r>
       <r>  -10.6921    1.0000 </r>
       <r>  -10.6913    1.0000 </r>
       <r>  -10.6562    1.0000 </r>
       <r>  -10.6554    1.0000 </r>
       <r>  -10.5405    1.0000 </r>
       <r>  -10.5227    1.0000 </r>
       <r>  -10.5219    1.0000 </r>
       <r>  -10.3405    1.0000 </r>
       <r>  -10.3395    1.0000 </r>
       <r>  -10.1742    1.0000 </r>
       <r>  -10.1206    1.0000 </r>
       <r>  -10.1193    1.0000 </r>
       <r>  -10.0299    1.0000 </r>
       <r>  -10.0286    1.0000 </r>
       <r>   -9.9931    1.0000 </r>
       <r>   -9.9409    1.0000 </r>
       <r>   -5.9593    1.0000 </r>
       <r>   -5.9586    1.0000 </r>
       <r>   -5.8237    1.0000 </r>
       <r>   -5.8233    1.0000 </r>
       <r>   -5.7899    1.0000 </r>
       <r>   -5.7896    1.0000 </r>
       <r>   -5.7718    1.0000 </r>
       <r>   -5.7641    1.0000 </r>
       <r>   -5.7639    1.0000 </r>
       <r>   -5.7272    1.0000 </r>
       <r>   -5.7271    1.0000 </r>
       <r>   -5.6992    1.0000 </r>
       <r>   -5.4859    1.0000 </r>
       <r>   -5.4858    1.0000 </r>
       <r>   -5.4610    1.0000 </r>
       <r>   -5.4605    1.0000 </r>
       <r>   -5.3335    1.0000 </r>
       <r>   -5.3332    1.0000 </r>
       <r>   -5.2547    1.0000 </r>
       <r>   -5.2298    1.0000 </r>
       <r>   -5.2293    1.0000 </r>
       <r>   -5.0692    1.0000 </r>
       <r>   -5.0689    1.0000 </r>
       <r>   -4.9776    1.0000 </r>
       <r>   -4.9771    1.0000 </r>
       <r>   -4.9015    1.0000 </r>
       <r>   -4.9012    1.0000 </r>
       <r>   -4.8763    1.0000 </r>
       <r>   -4.8758    1.0000 </r>
       <r>   -4.8060    1.0000 </r>
       <r>   -4.8057    1.0000 </r>
       <r>   -4.6563    1.0000 </r>
       <r>   -4.6560    1.0000 </r>
       <r>   -4.6364    1.0000 </r>
       <r>   -4.6361    1.0000 </r>
       <r>   -4.3881    1.0000 </r>
       <r>   -4.3878    1.0000 </r>
       <r>   -4.3874    1.0000 </r>
       <r>   -4.3873    1.0000 </r>
       <r>   -4.3501    1.0000 </r>
       <r>   -4.3146    1.0000 </r>
       <r>   -4.3141    1.0000 </r>
       <r>   -4.2938    1.0000 </r>
       <r>   -4.2935    1.0000 </r>
       <r>   -4.2624    1.0000 </r>
       <r>   -4.2555    1.0000 </r>
       <r>   -4.2414    1.0000 </r>
       <r>   -4.2403    1.0000 </r>
       <r>   -4.1243    1.0000 </r>
       <r>   -4.1242    1.0000 </r>
       <r>   -4.0726    1.0000 </r>
       <r>   -3.9092    1.0000 </r>
       <r>   -3.9087    1.0000 </r>
       <r>   -3.8609    1.0000 </r>
       <r>   -3.7928    1.0000 </r>
       <r>   -3.7919    1.0000 </r>
       <r>   -3.7712    1.0000 </r>
       <r>   -3.7709    1.0000 </r>
       <r>   -3.7192    1.0000 </r>
       <r>   -3.6446    1.0000 </r>
       <r>   -3.6438    1.0000 </r>
       <r>   -3.5282    1.0000 </r>
       <r>   -3.5279    1.0000 </r>
       <r>   -3.4823    1.0000 </r>
       <r>   -3.4812    1.0000 </r>
       <r>   -3.4733    1.0000 </r>
       <r>   -3.4268    1.0000 </r>
       <r>   -3.3925    1.0000 </r>
       <r>   -3.3914    1.0000 </r>
       <r>   -3.3841    1.0000 </r>
       <r>   -3.3537    1.0000 </r>
       <r>   -3.3525    1.0000 </r>
       <r>   -3.2736    1.0000 </r>
       <r>   -3.1970    1.0000 </r>
       <r>   -2.9103    1.0000 </r>
       <r>   -1.6707    0.0000 </r>
       <r>   -1.6449    0.0000 </r>
       <r>   -1.5896    0.0000 </r>
       <r>   -1.4647    0.0000 </r>
       <r>   -1.4640    0.0000 </r>
       <r>   -1.4549    0.0000 </r>
       <r>   -1.4541    0.0000 </r>
       <r>   -1.3803    0.0000 </r>
       <r>   -1.3182    0.0000 </r>
       <r>   -1.3176    0.0000 </r>
       <r>   -1.2760    0.0000 </r>
       <r>   -1.2403    0.0000 </r>
       <r>   -1.2395    0.0000 </r>
       <r>   -1.1698    0.0000 </r>
       <r>   -1.1692    0.0000 </r>
       <r>   -0.9537    0.0000 </r>
       <r>   -0.9529    0.0000 </r>
       <r>   -0.9512    0.0000 </r>
       <r>   -0.9509    0.0000 </r>
       <r>   -0.9417    0.0000 </r>
       <r>   -0.9415    0.0000 </r>
       <r>   -0.7733    0.0000 </r>
       <r>   -0.7726    0.0000 </r>
       <r>   -0.7301    0.0000 </r>
       <r>   -0.7295    0.0000 </r>
       <r>   -0.4371    0.0000 </r>
       <r>   -0.4364    0.0000 </r>
       <r>   -0.3991    0.0000 </r>
       <r>   -0.3288    0.0000 </r>
       <r>   -0.3285    0.0000 </r>
       <r>   -0.3142    0.0000 </r>
       <r>   -0.3138    0.0000 </r>
       <r>   -0.2772    0.0000 </r>
       <r>   -0.2456    0.0000 </r>
       <r>   -0.2453    0.0000 </r>
       <r>   -0.2017    0.0000 </r>
       <r>   -0.2013    0.0000 </r>
       <r>   -0.1814    0.0000 </r>
       <r>   -0.1807    0.0000 </r>
       <r>   -0.1501    0.0000 </r>
       <r>   -0.1373    0.0000 </r>
       <r>   -0.0942    0.0000 </r>
       <r>   -0.0939    0.0000 </r>
       <r>   -0.0617    0.0000 </r>
       <r>   -0.0610    0.0000 </r>
       <r>   -0.0156    0.0000 </r>
       <r>    0.0768    0.0000 </r>
       <r>    0.0772    0.0000 </r>
       <r>    0.1712    0.0000 </r>
       <r>    0.2132    0.0000 </r>
       <r>    0.2144    0.0000 </r>
       <r>    0.2295    0.0000 </r>
       <r>    0.2303    0.0000 </r>
       <r>    0.2530    0.0000 </r>
       <r>    0.3602    0.0000 </r>
       <r>    0.3608    0.0000 </r>
       <r>    0.3637    0.0000 </r>
       <r>    0.3720    0.0000 </r>
      </set>
      <set comment="kpoint 3">
       <r>  -25.2696    1.0000 </r>
       <r>  -25.2692    1.0000 </r>
       <r>  -25.2689    1.0000 </r>
       <r>  -25.2684    1.0000 </r>
       <r>  -25.2682    1.0000 </r>
       <r>  -25.2681    1.0000 </r>
       <r>  -25.2669    1.0000 </r>
       <r>  -25.2668    1.0000 </r>
       <r>  -25.2662    1.0000 </r>
       <r>  -25.2660    1.0000 </r>
       <r>  -25.2657    1.0000 </r>
       <r>  -25.2656    1.0000 </r>
       <r>  -25.2654    1.0000 </r>
       <r>  -25.2653    1.0000 </r>
       <r>  -25.2652    1.0000 </r>
       <r>  -25.2651    1.0000 </r>
       <r>  -25.2650    1.0000 </r>
       <r>  -25.2649    1.0000 </r>
       <r>  -25.2648    1.0000 </r>
       <r>  -25.2645    1.0000 </r>
       <r>  -25.2644    1.0000 </r>
       <r>  -25.2641    1.0000 </r>
       <r>  -25.2633    1.0000 </r>
       <r>  -25.2632    1.0000 </r>
       <r>  -25.2631    1.0000 </r>
       <r>  -25.2625    1.0000 </r>
       <r>  -25.2592    1.0000 </r>
       <r>  -25.2580    1.0000 </r>
       <r>  -25.2578    1.0000 </r>
       <r>  -25.2554    1.0000 </r>
       <r>  -25.2553    1.0000 </r>
       <r>  -25.2540    1.0000 </r>
       <r>  -25.2527    1.0000 </r>
       <r>  -25.2527    1.0000 </r>
       <r>  -25.2512    1.0000 </r>
       <r>  -25.2510    1.0000 </r>
       <r>  -25.2508    1.0000 </r>
       <r>  -25.2506    1.0000 </r>
       <r>  -25.2506    1.0000 </r>
       <r>  -25.2505    1.0000 </r>
       <r>  -25.2495    1.0000 </r>
       <r>  -25.2494    1.0000 </r>
       <r>  -25.2489    1.0000 </r>
       <r>  -25.2483    1.0000 </r>
       <r>  -25.2481    1.0000 </r>
       <r>  -25.2479    1.0000 </r>
       <r>  -25.2479    1.0000 </r>
       <r>  -25.2467    1.0000 </r>
       <r>  -25.2467    1.0000 </r>
       <r>  -25.2460    1.0000 </r>
       <r>  -25.2325    1.0000 </r>
       <r>  -25.2322    1.0000 </r>
       <r>  -25.2316    1.0000 </r>
       <r>  -25.2312    1.0000 </r>
       <r>  -25.2311    1.0000 </r>
       <r>  -25.2308    1.0000 </r>
       <r>  -25.2307    1.0000 </r>
       <r>  -25.2305    1.0000 </r>
       <r>  -25.2302    1.0000 </r>
       <r>  -25.2300    1.0000 </r>
       <r>  -25.2298    1.0000 </r>
       <r>  -25.2297    1.0000 </r>
       <r>  -25.2295    1.0000 </r>
       <r>  -25.2293    1.0000 </r>
       <r>  -25.2293    1.0000 </r>
       <r>  -25.2292    1.0000 </r>
       <r>  -25.2285    1.0000 </r>
       <r>  -25.2284    1.0000 </r>
       <r>  -25.2276    1.0000 </r>
       <r>  -25.2269    1.0000 </r>
       <r>  -25.2268    1.0000 </r>
       <r>  -25.2263    1.0000 </r>
       <r>  -25.2261    1.0000 </r>
       <r>  -25.2257    1.0000 </r>
       <r>  -25.2253    1.0000 </r>
       <r>  -25.2252    1.0000 </r>
       <r>  -25.2250    1.0000 </r>
       <r>  -25.2249    1.0000 </r>
       <r>  -25.2247    1.0000 </r>
       <r>  -25.2246    1.0000 </r>
       <r>  -25.2244    1.0000 </r>
       <r>  -25.2243    1.0000 </r>
       <r>  -25.2241    1.0000 </r>
       <r>  -25.2239    1.0000 </r>
       <r>  -25.2239    1.0000 </r>
       <r>  -25.2238    1.0000 </r>
       <r>  -25.2235    1.0000 </r>
       <r>  -25.2233    1.0000 </r>
       <r>  -25.2232    1.0000 </r>
       <r>  -25.2231    1.0000 </r>
       <r>  -25.2231    1.0000 </r>
       <r>  -25.2230    1.0000 </r>
       <r>  -25.2230    1.0000 </r>
       <r>  -25.2229    1.0000 </r>
       <r>  -25.2229    1.0000 </r>
       <r>  -25.2229    1.0000 </r>
       <r>  -25.2228    1.0000 </r>
       <r>  -25.2227    1.0000 </r>
       <r>  -25.2226    1.0000 </r>
       <r>  -25.2225    1.0000 </r>
       <r>  -25.2131    1.0000 </r>
       <r>  -25.2112    1.0000 </r>
       <r>  -25.2103    1.0000 </r>
       <r>  -25.2099    1.0000 </r>
       <r>  -25.2086    1.0000 </r>
       <r>  -25.2082    1.0000 </r>
       <r>  -25.2076    1.0000 </r>
       <r>  -25.2060    1.0000 </r>
       <r>  -25.2056    1.0000 </r>
       <r>  -25.2047    1.0000 </r>
       <r>  -25.2041    1.0000 </r>
       <r>  -25.2040    1.0000 </r>
       <r>  -25.2036    1.0000 </r>
       <r>  -25.2033    1.0000 </r>
       <r>  -25.2032    1.0000 </r>
       <r>  -25.2031    1.0000 </r>
       <r>  -25.2024    1.0000 </r>
       <r>  -25.2022    1.0000 </r>
       <r>  -25.2020    1.0000 </r>
       <r>  -25.2018    1.0000 </r>
       <r>  -25.2017    1.0000 </r>
       <r>  -25.2016    1.0000 </r>
       <r>  -25.2015    1.0000 </r>
       <r>  -25.2014    1.0000 </r>
       <r>  -25.2014    1.0000 </r>
       <r>  -14.5866    1.0000 </r>
       <r>  -14.4100    1.0000 </r>
       <r>  -14.3244    1.0000 </r>
       <r>  -14.3232    1.0000 </r>
       <r>  -14.1569    1.0000 </r>
       <r>  -14.1558    1.0000 </r>
       <r>  -14.0757    1.0000 </r>
       <r>  -13.8420    1.0000 </r>
       <r>  -13.8410    1.0000 </r>
       <r>  -13.6409    1.0000 </r>
       <r>  -13.6300    1.0000 </r>
       <r>  -13.6288    1.0000 </r>
       <r>  -13.5185    1.0000 </r>
       <r>  -13.5174    1.0000 </r>
       <r>  -13.4366    1.0000 </r>
       <r>  -13.4357    1.0000 </r>
       <r>  -13.3264    1.0000 </r>
       <r>  -13.3255    1.0000 </r>
       <r>  -13.2672    1.0000 </r>
       <r>  -13.1183    1.0000 </r>
       <r>  -13.1176    1.0000 </r>
       <r>  -13.0925    1.0000 </r>
       <r>  -13.0918    1.0000 </r>
       <r>  -12.9811    1.0000 </r>
       <r>  -12.9806    1.0000 </r>
       <r>  -11.1153    1.0000 </r>
       <r>  -11.1146    1.0000 </r>
       <r>  -11.0245    1.0000 </r>
       <r>  -11.0243    1.0000 </r>
       <r>  -11.0240    1.0000 </r>
       <r>  -11.0233    1.0000 </r>
       <r>  -10.9211    1.0000 </r>
       <r>  -10.8530    1.0000 </r>
       <r>  -10.8521    1.0000 </r>
       <r>  -10.6918    1.0000 </r>
       <r>  -10.6913    1.0000 </r>
       <r>  -10.6565    1.0000 </r>
       <r>  -10.6554    1.0000 </r>
       <r>  -10.5403    1.0000 </r>
       <r>  -10.5230    1.0000 </r>
       <r>  -10.5219    1.0000 </r>
       <r>  -10.3404    1.0000 </r>
       <r>  -10.3395    1.0000 </r>
       <r>  -10.1741    1.0000 </r>
       <r>  -10.1206    1.0000 </r>
       <r>  -10.1194    1.0000 </r>
       <r>  -10.0300    1.0000 </r>
       <r>  -10.0286    1.0000 </r>
       <r>   -9.9931    1.0000 </r>
       <r>   -9.9409    1.0000 </r>
       <r>   -5.9592    1.0000 </r>
       <r>   -5.9586    1.0000 </r>
       <r>   -5.8239    1.0000 </r>
       <r>   -5.8233    1.0000 </r>
       <r>   -5.7899    1.0000 </r>
       <r>   -5.7894    1.0000 </r>
       <r>   -5.7720    1.0000 </r>
       <r>   -5.7641    1.0000 </r>
       <r>   -5.7637    1.0000 </r>
       <r>   -5.7273    1.0000 </r>
       <r>   -5.7270    1.0000 </r>
       <r>   -5.6992    1.0000 </r>
       <r>   -5.4861    1.0000 </r>
       <r>   -5.4857    1.0000 </r>
       <r>   -5.4611    1.0000 </r>
       <r>   -5.4604    1.0000 </r>
       <r>   -5.3335    1.0000 </r>
       <r>   -5.3330    1.0000 </r>
       <r>   -5.2546    1.0000 </r>
       <r>   -5.2298    1.0000 </r>
       <r>   -5.2293    1.0000 </r>
       <r>   -5.0694    1.0000 </r>
       <r>   -5.0688    1.0000 </r>
       <r>   -4.9777    1.0000 </r>
       <r>   -4.9772    1.0000 </r>
       <r>   -4.9014    1.0000 </r>
       <r>   -4.9012    1.0000 </r>
       <r>   -4.8762    1.0000 </r>
       <r>   -4.8757    1.0000 </r>
       <r>   -4.8061    1.0000 </r>
       <r>   -4.8054    1.0000 </r>
       <r>   -4.6566    1.0000 </r>
       <r>   -4.6558    1.0000 </r>
       <r>   -4.6366    1.0000 </r>
       <r>   -4.6363    1.0000 </r>
       <r>   -4.3882    1.0000 </r>
       <r>   -4.3878    1.0000 </r>
       <r>   -4.3874    1.0000 </r>
       <r>   -4.3872    1.0000 </r>
       <r>   -4.3498    1.0000 </r>
       <r>   -4.3146    1.0000 </r>
       <r>   -4.3141    1.0000 </r>
       <r>   -4.2941    1.0000 </r>
       <r>   -4.2936    1.0000 </r>
       <r>   -4.2625    1.0000 </r>
       <r>   -4.2552    1.0000 </r>
       <r>   -4.2410    1.0000 </r>
       <r>   -4.2403    1.0000 </r>
       <r>   -4.1246    1.0000 </r>
       <r>   -4.1244    1.0000 </r>
       <r>   -4.0728    1.0000 </r>
       <r>   -3.9092    1.0000 </r>
       <r>   -3.9086    1.0000 </r>
       <r>   -3.8608    1.0000 </r>
       <r>   -3.7927    1.0000 </r>
       <r>   -3.7920    1.0000 </r>
       <r>   -3.7713    1.0000 </r>
       <r>   -3.7707    1.0000 </r>
       <r>   -3.7194    1.0000 </r>
       <r>   -3.6445    1.0000 </r>
       <r>   -3.6438    1.0000 </r>
       <r>   -3.5282    1.0000 </r>
       <r>   -3.5277    1.0000 </r>
       <r>   -3.4823    1.0000 </r>
       <r>   -3.4813    1.0000 </r>
       <r>   -3.4732    1.0000 </r>
       <r>   -3.4267    1.0000 </r>
       <r>   -3.3926    1.0000 </r>
       <r>   -3.3915    1.0000 </r>
       <r>   -3.3840    1.0000 </r>
       <r>   -3.3533    1.0000 </r>
       <r>   -3.3525    1.0000 </r>
       <r>   -3.2739    1.0000 </r>
       <r>   -3.1966    1.0000 </r>
       <r>   -2.9107    1.0000 </r>
       <r>   -1.6709    0.0000 </r>
       <r>   -1.6451    0.0000 </r>
       <r>   -1.5896    0.0000 </r>
       <r>   -1.4647    0.0000 </r>
       <r>   -1.4638    0.0000 </r>
       <r>   -1.4547    0.0000 </r>
       <r>   -1.4542    0.0000 </r>
       <r>   -1.3804    0.0000 </r>
       <r>   -1.3180    0.0000 </r>
       <r>   -1.3176    0.0000 </r>
       <r>   -1.2761    0.0000 </r>
       <r>   -1.2402    0.0000 </r>
       <r>   -1.2395    0.0000 </r>
       <r>   -1.1699    0.0000 </r>
       <r>   -1.1691    0.0000 </r>
       <r>   -0.9538    0.0000 </r>
       <r>   -0.9531    0.0000 </r>
       <r>   -0.9514    0.0000 </r>
       <r>   -0.9507    0.0000 </r>
       <r>   -0.9419    0.0000 </r>
       <r>   -0.9414    0.0000 </r>
       <r>   -0.7731    0.0000 </r>
       <r>   -0.7722    0.0000 </r>
       <r>   -0.7305    0.0000 </r>
       <r>   -0.7293    0.0000 </r>
       <r>   -0.4371    0.0000 </r>
       <r>   -0.4363    0.0000 </r>
       <r>   -0.3995    0.0000 </r>
       <r>   -0.3292    0.0000 </r>
       <r>   -0.3284    0.0000 </r>
       <r>   -0.3144    0.0000 </r>
       <r>   -0.3135    0.0000 </r>
       <r>   -0.2777    0.0000 </r>
       <r>   -0.2457    0.0000 </r>
       <r>   -0.2450    0.0000 </r>
       <r>   -0.2019    0.0000 </r>
       <r>   -0.2011    0.0000 </r>
       <r>   -0.1814    0.0000 </r>
       <r>   -0.1808    0.0000 </r>
       <r>   -0.1503    0.0000 </r>
       <r>   -0.1368    0.0000 </r>
       <r>   -0.0941    0.0000 </r>
       <r>   -0.0935    0.0000 </r>
       <r>   -0.0617    0.0000 </r>
       <r>   -0.0609    0.0000 </r>
       <r>   -0.0159    0.0000 </r>
       <r>    0.0769    0.0000 </r>
       <r>    0.0775    0.0000 </r>
       <r>    0.1716    0.0000 </r>
       <r>    0.2135    0.0000 </r>
       <r>    0.2145    0.0000 </r>
       <r>    0.2297    0.0000 </r>
       <r>    0.2304    0.0000 </r>
       <r>    0.2527    0.0000 </r>
       <r>    0.3593    0.0000 </r>
       <r>    0.3606    0.0000 </r>
       <r>    0.3628    0.0000 </r>
       <r>    0.3660    0.0000 </r>
      </set>
      <set comment="kpoint 4">
       <r>  -25.2696    1.0000 </r>
       <r>  -25.2692    1.0000 </r>
       <r>  -25.2689    1.0000 </r>
       <r>  -25.2684    1.0000 </r>
       <r>  -25.2682    1.0000 </r>
       <r>  -25.2681    1.0000 </r>
       <r>  -25.2668    1.0000 </r>
       <r>  -25.2667    1.0000 </r>
       <r>  -25.2662    1.0000 </r>
       <r>  -25.2660    1.0000 </r>
       <r>  -25.2657    1.0000 </r>
       <r>  -25.2656    1.0000 </r>
       <r>  -25.2655    1.0000 </r>
       <r>  -25.2653    1.0000 </r>
       <r>  -25.2653    1.0000 </r>
       <r>  -25.2651    1.0000 </r>
       <r>  -25.2650    1.0000 </r>
       <r>  -25.2649    1.0000 </r>
       <r>  -25.2648    1.0000 </r>
       <r>  -25.2645    1.0000 </r>
       <r>  -25.2644    1.0000 </r>
       <r>  -25.2641    1.0000 </r>
       <r>  -25.2633    1.0000 </r>
       <r>  -25.2632    1.0000 </r>
       <r>  -25.2630    1.0000 </r>
       <r>  -25.2625    1.0000 </r>
       <r>  -25.2592    1.0000 </r>
       <r>  -25.2580    1.0000 </r>
       <r>  -25.2578    1.0000 </r>
       <r>  -25.2554    1.0000 </r>
       <r>  -25.2553    1.0000 </r>
       <r>  -25.2540    1.0000 </r>
       <r>  -25.2527    1.0000 </r>
       <r>  -25.2527    1.0000 </r>
       <r>  -25.2512    1.0000 </r>
       <r>  -25.2510    1.0000 </r>
       <r>  -25.2507    1.0000 </r>
       <r>  -25.2506    1.0000 </r>
       <r>  -25.2506    1.0000 </r>
       <r>  -25.2505    1.0000 </r>
       <r>  -25.2495    1.0000 </r>
       <r>  -25.2494    1.0000 </r>
       <r>  -25.2489    1.0000 </r>
       <r>  -25.2483    1.0000 </r>
       <r>  -25.2481    1.0000 </r>
       <r>  -25.2479    1.0000 </r>
       <r>  -25.2479    1.0000 </r>
       <r>  -25.2468    1.0000 </r>
       <r>  -25.2467    1.0000 </r>
       <r>  -25.2460    1.0000 </r>
       <r>  -25.2324    1.0000 </r>
       <r>  -25.2322    1.0000 </r>
       <r>  -25.2316    1.0000 </r>
       <r>  -25.2312    1.0000 </r>
       <r>  -25.2311    1.0000 </r>
       <r>  -25.2307    1.0000 </r>
       <r>  -25.2307    1.0000 </r>
       <r>  -25.2305    1.0000 </r>
       <r>  -25.2302    1.0000 </r>
       <r>  -25.2301    1.0000 </r>
       <r>  -25.2298    1.0000 </r>
       <r>  -25.2297    1.0000 </r>
       <r>  -25.2295    1.0000 </r>
       <r>  -25.2294    1.0000 </r>
       <r>  -25.2293    1.0000 </r>
       <r>  -25.2292    1.0000 </r>
       <r>  -25.2285    1.0000 </r>
       <r>  -25.2284    1.0000 </r>
       <r>  -25.2275    1.0000 </r>
       <r>  -25.2270    1.0000 </r>
       <r>  -25.2268    1.0000 </r>
       <r>  -25.2263    1.0000 </r>
       <r>  -25.2261    1.0000 </r>
       <r>  -25.2258    1.0000 </r>
       <r>  -25.2253    1.0000 </r>
       <r>  -25.2251    1.0000 </r>
       <r>  -25.2251    1.0000 </r>
       <r>  -25.2248    1.0000 </r>
       <r>  -25.2247    1.0000 </r>
       <r>  -25.2245    1.0000 </r>
       <r>  -25.2244    1.0000 </r>
       <r>  -25.2243    1.0000 </r>
       <r>  -25.2241    1.0000 </r>
       <r>  -25.2240    1.0000 </r>
       <r>  -25.2239    1.0000 </r>
       <r>  -25.2238    1.0000 </r>
       <r>  -25.2234    1.0000 </r>
       <r>  -25.2233    1.0000 </r>
       <r>  -25.2232    1.0000 </r>
       <r>  -25.2231    1.0000 </r>
       <r>  -25.2231    1.0000 </r>
       <r>  -25.2231    1.0000 </r>
       <r>  -25.2230    1.0000 </r>
       <r>  -25.2230    1.0000 </r>
       <r>  -25.2229    1.0000 </r>
       <r>  -25.2229    1.0000 </r>
       <r>  -25.2228    1.0000 </r>
       <r>  -25.2227    1.0000 </r>
       <r>  -25.2227    1.0000 </r>
       <r>  -25.2224    1.0000 </r>
       <r>  -25.2131    1.0000 </r>
       <r>  -25.2112    1.0000 </r>
       <r>  -25.2103    1.0000 </r>
       <r>  -25.2099    1.0000 </r>
       <r>  -25.2086    1.0000 </r>
       <r>  -25.2082    1.0000 </r>
       <r>  -25.2076    1.0000 </r>
       <r>  -25.2060    1.0000 </r>
       <r>  -25.2056    1.0000 </r>
       <r>  -25.2047    1.0000 </r>
       <r>  -25.2041    1.0000 </r>
       <r>  -25.2040    1.0000 </r>
       <r>  -25.2036    1.0000 </r>
       <r>  -25.2032    1.0000 </r>
       <r>  -25.2031    1.0000 </r>
       <r>  -25.2031    1.0000 </r>
       <r>  -25.2024    1.0000 </r>
       <r>  -25.2022    1.0000 </r>
       <r>  -25.2020    1.0000 </r>
       <r>  -25.2018    1.0000 </r>
       <r>  -25.2017    1.0000 </r>
       <r>  -25.2016    1.0000 </r>
       <r>  -25.2015    1.0000 </r>
       <r>  -25.2014    1.0000 </r>
       <r>  -25.2014    1.0000 </r>
       <r>  -14.5866    1.0000 </r>
       <r>  -14.4100    1.0000 </r>
       <r>  -14.3243    1.0000 </r>
       <r>  -14.3232    1.0000 </r>
       <r>  -14.1568    1.0000 </r>
       <r>  -14.1558    1.0000 </r>
       <r>  -14.0757    1.0000 </r>
       <r>  -13.8420    1.0000 </r>
       <r>  -13.8411    1.0000 </r>
       <r>  -13.6410    1.0000 </r>
       <r>  -13.6298    1.0000 </r>
       <r>  -13.6288    1.0000 </r>
       <r>  -13.5184    1.0000 </r>
       <r>  -13.5174    1.0000 </r>
       <r>  -13.4365    1.0000 </r>
       <r>  -13.4359    1.0000 </r>
       <r>  -13.3263    1.0000 </r>
       <r>  -13.3255    1.0000 </r>
       <r>  -13.2674    1.0000 </r>
       <r>  -13.1182    1.0000 </r>
       <r>  -13.1175    1.0000 </r>
       <r>  -13.0925    1.0000 </r>
       <r>  -13.0921    1.0000 </r>
       <r>  -12.9811    1.0000 </r>
       <r>  -12.9804    1.0000 </r>
       <r>  -11.1153    1.0000 </r>
       <r>  -11.1149    1.0000 </r>
       <r>  -11.0244    1.0000 </r>
       <r>  -11.0243    1.0000 </r>
       <r>  -11.0239    1.0000 </r>
       <r>  -11.0233    1.0000 </r>
       <r>  -10.9207    1.0000 </r>
       <r>  -10.8530    1.0000 </r>
       <r>  -10.8524    1.0000 </r>
       <r>  -10.6915    1.0000 </r>
       <r>  -10.6913    1.0000 </r>
       <r>  -10.6565    1.0000 </r>
       <r>  -10.6557    1.0000 </r>
       <r>  -10.5400    1.0000 </r>
       <r>  -10.5231    1.0000 </r>
       <r>  -10.5222    1.0000 </r>
       <r>  -10.3402    1.0000 </r>
       <r>  -10.3396    1.0000 </r>
       <r>  -10.1740    1.0000 </r>
       <r>  -10.1205    1.0000 </r>
       <r>  -10.1195    1.0000 </r>
       <r>  -10.0300    1.0000 </r>
       <r>  -10.0287    1.0000 </r>
       <r>   -9.9930    1.0000 </r>
       <r>   -9.9409    1.0000 </r>
       <r>   -5.9591    1.0000 </r>
       <r>   -5.9586    1.0000 </r>
       <r>   -5.8241    1.0000 </r>
       <r>   -5.8234    1.0000 </r>
       <r>   -5.7898    1.0000 </r>
       <r>   -5.7894    1.0000 </r>
       <r>   -5.7721    1.0000 </r>
       <r>   -5.7640    1.0000 </r>
       <r>   -5.7638    1.0000 </r>
       <r>   -5.7272    1.0000 </r>
       <r>   -5.7270    1.0000 </r>
       <r>   -5.6992    1.0000 </r>
       <r>   -5.4862    1.0000 </r>
       <r>   -5.4857    1.0000 </r>
       <r>   -5.4610    1.0000 </r>
       <r>   -5.4607    1.0000 </r>
       <r>   -5.3336    1.0000 </r>
       <r>   -5.3329    1.0000 </r>
       <r>   -5.2545    1.0000 </r>
       <r>   -5.2298    1.0000 </r>
       <r>   -5.2295    1.0000 </r>
       <r>   -5.0695    1.0000 </r>
       <r>   -5.0688    1.0000 </r>
       <r>   -4.9776    1.0000 </r>
       <r>   -4.9774    1.0000 </r>
       <r>   -4.9015    1.0000 </r>
       <r>   -4.9011    1.0000 </r>
       <r>   -4.8760    1.0000 </r>
       <r>   -4.8757    1.0000 </r>
       <r>   -4.8060    1.0000 </r>
       <r>   -4.8053    1.0000 </r>
       <r>   -4.6565    1.0000 </r>
       <r>   -4.6561    1.0000 </r>
       <r>   -4.6370    1.0000 </r>
       <r>   -4.6364    1.0000 </r>
       <r>   -4.3881    1.0000 </r>
       <r>   -4.3877    1.0000 </r>
       <r>   -4.3876    1.0000 </r>
       <r>   -4.3872    1.0000 </r>
       <r>   -4.3496    1.0000 </r>
       <r>   -4.3146    1.0000 </r>
       <r>   -4.3141    1.0000 </r>
       <r>   -4.2941    1.0000 </r>
       <r>   -4.2938    1.0000 </r>
       <r>   -4.2627    1.0000 </r>
       <r>   -4.2549    1.0000 </r>
       <r>   -4.2406    1.0000 </r>
       <r>   -4.2404    1.0000 </r>
       <r>   -4.1247    1.0000 </r>
       <r>   -4.1246    1.0000 </r>
       <r>   -4.0729    1.0000 </r>
       <r>   -3.9090    1.0000 </r>
       <r>   -3.9087    1.0000 </r>
       <r>   -3.8606    1.0000 </r>
       <r>   -3.7924    1.0000 </r>
       <r>   -3.7921    1.0000 </r>
       <r>   -3.7712    1.0000 </r>
       <r>   -3.7706    1.0000 </r>
       <r>   -3.7196    1.0000 </r>
       <r>   -3.6444    1.0000 </r>
       <r>   -3.6440    1.0000 </r>
       <r>   -3.5280    1.0000 </r>
       <r>   -3.5275    1.0000 </r>
       <r>   -3.4822    1.0000 </r>
       <r>   -3.4814    1.0000 </r>
       <r>   -3.4731    1.0000 </r>
       <r>   -3.4267    1.0000 </r>
       <r>   -3.3927    1.0000 </r>
       <r>   -3.3916    1.0000 </r>
       <r>   -3.3840    1.0000 </r>
       <r>   -3.3530    1.0000 </r>
       <r>   -3.3526    1.0000 </r>
       <r>   -3.2742    1.0000 </r>
       <r>   -3.1963    1.0000 </r>
       <r>   -2.9111    1.0000 </r>
       <r>   -1.6711    0.0000 </r>
       <r>   -1.6452    0.0000 </r>
       <r>   -1.5895    0.0000 </r>
       <r>   -1.4646    0.0000 </r>
       <r>   -1.4638    0.0000 </r>
       <r>   -1.4545    0.0000 </r>
       <r>   -1.4541    0.0000 </r>
       <r>   -1.3806    0.0000 </r>
       <r>   -1.3178    0.0000 </r>
       <r>   -1.3174    0.0000 </r>
       <r>   -1.2763    0.0000 </r>
       <r>   -1.2401    0.0000 </r>
       <r>   -1.2395    0.0000 </r>
       <r>   -1.1698    0.0000 </r>
       <r>   -1.1691    0.0000 </r>
       <r>   -0.9542    0.0000 </r>
       <r>   -0.9530    0.0000 </r>
       <r>   -0.9513    0.0000 </r>
       <r>   -0.9508    0.0000 </r>
       <r>   -0.9418    0.0000 </r>
       <r>   -0.9414    0.0000 </r>
       <r>   -0.7727    0.0000 </r>
       <r>   -0.7722    0.0000 </r>
       <r>   -0.7308    0.0000 </r>
       <r>   -0.7293    0.0000 </r>
       <r>   -0.4369    0.0000 </r>
       <r>   -0.4363    0.0000 </r>
       <r>   -0.3999    0.0000 </r>
       <r>   -0.3296    0.0000 </r>
       <r>   -0.3283    0.0000 </r>
       <r>   -0.3141    0.0000 </r>
       <r>   -0.3136    0.0000 </r>
       <r>   -0.2782    0.0000 </r>
       <r>   -0.2455    0.0000 </r>
       <r>   -0.2449    0.0000 </r>
       <r>   -0.2021    0.0000 </r>
       <r>   -0.2010    0.0000 </r>
       <r>   -0.1813    0.0000 </r>
       <r>   -0.1810    0.0000 </r>
       <r>   -0.1505    0.0000 </r>
       <r>   -0.1363    0.0000 </r>
       <r>   -0.0937    0.0000 </r>
       <r>   -0.0934    0.0000 </r>
       <r>   -0.0616    0.0000 </r>
       <r>   -0.0611    0.0000 </r>
       <r>   -0.0162    0.0000 </r>
       <r>    0.0772    0.0000 </r>
       <r>    0.0776    0.0000 </r>
       <r>    0.1719    0.0000 </r>
       <r>    0.2140    0.0000 </r>
       <r>    0.2145    0.0000 </r>
       <r>    0.2300    0.0000 </r>
       <r>    0.2304    0.0000 </r>
       <r>    0.2525    0.0000 </r>
       <r>    0.3605    0.0000 </r>
       <r>    0.3617    0.0000 </r>
       <r>    0.3707    0.0000 </r>
       <r>    0.3868    0.0000 </r>
      </set>
      <set comment="kpoint 5">
       <r>  -25.2698    1.0000 </r>
       <r>  -25.2686    1.0000 </r>
       <r>  -25.2684    1.0000 </r>
       <r>  -25.2681    1.0000 </r>
       <r>  -25.2680    1.0000 </r>
       <r>  -25.2673    1.0000 </r>
       <r>  -25.2673    1.0000 </r>
       <r>  -25.2670    1.0000 </r>
       <r>  -25.2670    1.0000 </r>
       <r>  -25.2670    1.0000 </r>
       <r>  -25.2669    1.0000 </r>
       <r>  -25.2657    1.0000 </r>
       <r>  -25.2656    1.0000 </r>
       <r>  -25.2654    1.0000 </r>
       <r>  -25.2654    1.0000 </r>
       <r>  -25.2651    1.0000 </r>
       <r>  -25.2650    1.0000 </r>
       <r>  -25.2649    1.0000 </r>
       <r>  -25.2649    1.0000 </r>
       <r>  -25.2643    1.0000 </r>
       <r>  -25.2641    1.0000 </r>
       <r>  -25.2635    1.0000 </r>
       <r>  -25.2634    1.0000 </r>
       <r>  -25.2626    1.0000 </r>
       <r>  -25.2625    1.0000 </r>
       <r>  -25.2613    1.0000 </r>
       <r>  -25.2611    1.0000 </r>
       <r>  -25.2585    1.0000 </r>
       <r>  -25.2582    1.0000 </r>
       <r>  -25.2541    1.0000 </r>
       <r>  -25.2541    1.0000 </r>
       <r>  -25.2539    1.0000 </r>
       <r>  -25.2538    1.0000 </r>
       <r>  -25.2515    1.0000 </r>
       <r>  -25.2513    1.0000 </r>
       <r>  -25.2512    1.0000 </r>
       <r>  -25.2511    1.0000 </r>
       <r>  -25.2501    1.0000 </r>
       <r>  -25.2500    1.0000 </r>
       <r>  -25.2499    1.0000 </r>
       <r>  -25.2498    1.0000 </r>
       <r>  -25.2497    1.0000 </r>
       <r>  -25.2496    1.0000 </r>
       <r>  -25.2495    1.0000 </r>
       <r>  -25.2495    1.0000 </r>
       <r>  -25.2472    1.0000 </r>
       <r>  -25.2471    1.0000 </r>
       <r>  -25.2469    1.0000 </r>
       <r>  -25.2469    1.0000 </r>
       <r>  -25.2456    1.0000 </r>
       <r>  -25.2326    1.0000 </r>
       <r>  -25.2322    1.0000 </r>
       <r>  -25.2317    1.0000 </r>
       <r>  -25.2313    1.0000 </r>
       <r>  -25.2313    1.0000 </r>
       <r>  -25.2307    1.0000 </r>
       <r>  -25.2305    1.0000 </r>
       <r>  -25.2300    1.0000 </r>
       <r>  -25.2300    1.0000 </r>
       <r>  -25.2299    1.0000 </r>
       <r>  -25.2299    1.0000 </r>
       <r>  -25.2298    1.0000 </r>
       <r>  -25.2298    1.0000 </r>
       <r>  -25.2290    1.0000 </r>
       <r>  -25.2290    1.0000 </r>
       <r>  -25.2289    1.0000 </r>
       <r>  -25.2288    1.0000 </r>
       <r>  -25.2278    1.0000 </r>
       <r>  -25.2277    1.0000 </r>
       <r>  -25.2275    1.0000 </r>
       <r>  -25.2275    1.0000 </r>
       <r>  -25.2268    1.0000 </r>
       <r>  -25.2266    1.0000 </r>
       <r>  -25.2257    1.0000 </r>
       <r>  -25.2251    1.0000 </r>
       <r>  -25.2251    1.0000 </r>
       <r>  -25.2250    1.0000 </r>
       <r>  -25.2249    1.0000 </r>
       <r>  -25.2248    1.0000 </r>
       <r>  -25.2246    1.0000 </r>
       <r>  -25.2239    1.0000 </r>
       <r>  -25.2236    1.0000 </r>
       <r>  -25.2236    1.0000 </r>
       <r>  -25.2236    1.0000 </r>
       <r>  -25.2235    1.0000 </r>
       <r>  -25.2235    1.0000 </r>
       <r>  -25.2235    1.0000 </r>
       <r>  -25.2234    1.0000 </r>
       <r>  -25.2234    1.0000 </r>
       <r>  -25.2233    1.0000 </r>
       <r>  -25.2233    1.0000 </r>
       <r>  -25.2233    1.0000 </r>
       <r>  -25.2232    1.0000 </r>
       <r>  -25.2231    1.0000 </r>
       <r>  -25.2231    1.0000 </r>
       <r>  -25.2229    1.0000 </r>
       <r>  -25.2229    1.0000 </r>
       <r>  -25.2228    1.0000 </r>
       <r>  -25.2226    1.0000 </r>
       <r>  -25.2225    1.0000 </r>
       <r>  -25.2126    1.0000 </r>
       <r>  -25.2121    1.0000 </r>
       <r>  -25.2105    1.0000 </r>
       <r>  -25.2101    1.0000 </r>
       <r>  -25.2079    1.0000 </r>
       <r>  -25.2070    1.0000 </r>
       <r>  -25.2070    1.0000 </r>
       <r>  -25.2069    1.0000 </r>
       <r>  -25.2059    1.0000 </r>
       <r>  -25.2057    1.0000 </r>
       <r>  -25.2043    1.0000 </r>
       <r>  -25.2039    1.0000 </r>
       <r>  -25.2038    1.0000 </r>
       <r>  -25.2037    1.0000 </r>
       <r>  -25.2028    1.0000 </r>
       <r>  -25.2023    1.0000 </r>
       <r>  -25.2022    1.0000 </r>
       <r>  -25.2021    1.0000 </r>
       <r>  -25.2019    1.0000 </r>
       <r>  -25.2019    1.0000 </r>
       <r>  -25.2018    1.0000 </r>
       <r>  -25.2017    1.0000 </r>
       <r>  -25.2016    1.0000 </r>
       <r>  -25.2015    1.0000 </r>
       <r>  -25.2014    1.0000 </r>
       <r>  -14.5203    1.0000 </r>
       <r>  -14.5191    1.0000 </r>
       <r>  -14.3456    1.0000 </r>
       <r>  -14.3447    1.0000 </r>
       <r>  -14.0158    1.0000 </r>
       <r>  -14.0155    1.0000 </r>
       <r>  -14.0154    1.0000 </r>
       <r>  -14.0135    1.0000 </r>
       <r>  -13.8651    1.0000 </r>
       <r>  -13.8638    1.0000 </r>
       <r>  -13.5870    1.0000 </r>
       <r>  -13.5869    1.0000 </r>
       <r>  -13.5867    1.0000 </r>
       <r>  -13.5855    1.0000 </r>
       <r>  -13.2409    1.0000 </r>
       <r>  -13.2407    1.0000 </r>
       <r>  -13.2405    1.0000 </r>
       <r>  -13.2389    1.0000 </r>
       <r>  -13.2192    1.0000 </r>
       <r>  -13.2190    1.0000 </r>
       <r>  -13.2189    1.0000 </r>
       <r>  -13.2180    1.0000 </r>
       <r>  -13.2046    1.0000 </r>
       <r>  -12.9621    1.0000 </r>
       <r>  -12.9618    1.0000 </r>
       <r>  -11.1263    1.0000 </r>
       <r>  -11.1258    1.0000 </r>
       <r>  -10.9877    1.0000 </r>
       <r>  -10.9463    1.0000 </r>
       <r>  -10.9461    1.0000 </r>
       <r>  -10.9460    1.0000 </r>
       <r>  -10.9449    1.0000 </r>
       <r>  -10.8795    1.0000 </r>
       <r>  -10.8785    1.0000 </r>
       <r>  -10.8784    1.0000 </r>
       <r>  -10.8780    1.0000 </r>
       <r>  -10.5764    1.0000 </r>
       <r>  -10.5757    1.0000 </r>
       <r>  -10.5756    1.0000 </r>
       <r>  -10.5746    1.0000 </r>
       <r>  -10.3379    1.0000 </r>
       <r>  -10.3368    1.0000 </r>
       <r>  -10.2130    1.0000 </r>
       <r>  -10.2111    1.0000 </r>
       <r>  -10.2110    1.0000 </r>
       <r>  -10.2107    1.0000 </r>
       <r>  -10.0199    1.0000 </r>
       <r>  -10.0185    1.0000 </r>
       <r>   -9.9577    1.0000 </r>
       <r>   -9.9564    1.0000 </r>
       <r>   -5.9947    1.0000 </r>
       <r>   -5.9940    1.0000 </r>
       <r>   -5.7669    1.0000 </r>
       <r>   -5.7587    1.0000 </r>
       <r>   -5.7583    1.0000 </r>
       <r>   -5.7579    1.0000 </r>
       <r>   -5.7576    1.0000 </r>
       <r>   -5.6799    1.0000 </r>
       <r>   -5.6798    1.0000 </r>
       <r>   -5.6791    1.0000 </r>
       <r>   -5.6784    1.0000 </r>
       <r>   -5.6346    1.0000 </r>
       <r>   -5.6344    1.0000 </r>
       <r>   -5.6343    1.0000 </r>
       <r>   -5.6340    1.0000 </r>
       <r>   -5.5370    1.0000 </r>
       <r>   -5.5361    1.0000 </r>
       <r>   -5.2365    1.0000 </r>
       <r>   -5.2361    1.0000 </r>
       <r>   -5.2353    1.0000 </r>
       <r>   -5.2350    1.0000 </r>
       <r>   -5.1318    1.0000 </r>
       <r>   -5.1312    1.0000 </r>
       <r>   -5.1308    1.0000 </r>
       <r>   -5.1303    1.0000 </r>
       <r>   -4.9023    1.0000 </r>
       <r>   -4.9020    1.0000 </r>
       <r>   -4.6291    1.0000 </r>
       <r>   -4.6289    1.0000 </r>
       <r>   -4.6286    1.0000 </r>
       <r>   -4.6281    1.0000 </r>
       <r>   -4.5835    1.0000 </r>
       <r>   -4.5832    1.0000 </r>
       <r>   -4.5830    1.0000 </r>
       <r>   -4.5823    1.0000 </r>
       <r>   -4.5313    1.0000 </r>
       <r>   -4.5310    1.0000 </r>
       <r>   -4.3949    1.0000 </r>
       <r>   -4.3944    1.0000 </r>
       <r>   -4.3196    1.0000 </r>
       <r>   -4.2867    1.0000 </r>
       <r>   -4.2050    1.0000 </r>
       <r>   -4.2043    1.0000 </r>
       <r>   -4.2041    1.0000 </r>
       <r>   -4.2039    1.0000 </r>
       <r>   -4.2039    1.0000 </r>
       <r>   -4.2035    1.0000 </r>
       <r>   -4.2027    1.0000 </r>
       <r>   -4.2025    1.0000 </r>
       <r>   -4.0181    1.0000 </r>
       <r>   -4.0168    1.0000 </r>
       <r>   -4.0165    1.0000 </r>
       <r>   -4.0163    1.0000 </r>
       <r>   -3.9142    1.0000 </r>
       <r>   -3.9125    1.0000 </r>
       <r>   -3.7785    1.0000 </r>
       <r>   -3.7780    1.0000 </r>
       <r>   -3.7493    1.0000 </r>
       <r>   -3.7479    1.0000 </r>
       <r>   -3.7479    1.0000 </r>
       <r>   -3.7478    1.0000 </r>
       <r>   -3.6388    1.0000 </r>
       <r>   -3.6378    1.0000 </r>
       <r>   -3.5890    1.0000 </r>
       <r>   -3.5887    1.0000 </r>
       <r>   -3.4148    1.0000 </r>
       <r>   -3.4130    1.0000 </r>
       <r>   -3.4129    1.0000 </r>
       <r>   -3.4127    1.0000 </r>
       <r>   -3.4043    1.0000 </r>
       <r>   -3.4032    1.0000 </r>
       <r>   -3.3448    1.0000 </r>
       <r>   -3.3436    1.0000 </r>
       <r>   -3.0654    1.0000 </r>
       <r>   -3.0635    1.0000 </r>
       <r>   -1.7134    0.0000 </r>
       <r>   -1.7132    0.0000 </r>
       <r>   -1.3187    0.0000 </r>
       <r>   -1.2418    0.0000 </r>
       <r>   -1.2406    0.0000 </r>
       <r>   -1.2396    0.0000 </r>
       <r>   -1.2391    0.0000 </r>
       <r>   -1.2383    0.0000 </r>
       <r>   -1.2381    0.0000 </r>
       <r>   -1.2278    0.0000 </r>
       <r>   -1.2275    0.0000 </r>
       <r>   -1.2111    0.0000 </r>
       <r>   -1.2103    0.0000 </r>
       <r>   -1.2097    0.0000 </r>
       <r>   -1.2096    0.0000 </r>
       <r>   -0.9440    0.0000 </r>
       <r>   -0.9429    0.0000 </r>
       <r>   -0.9422    0.0000 </r>
       <r>   -0.9419    0.0000 </r>
       <r>   -0.9083    0.0000 </r>
       <r>   -0.9078    0.0000 </r>
       <r>   -0.8610    0.0000 </r>
       <r>   -0.8604    0.0000 </r>
       <r>   -0.8595    0.0000 </r>
       <r>   -0.8595    0.0000 </r>
       <r>   -0.5339    0.0000 </r>
       <r>   -0.5329    0.0000 </r>
       <r>   -0.4718    0.0000 </r>
       <r>   -0.4227    0.0000 </r>
       <r>   -0.4220    0.0000 </r>
       <r>   -0.4211    0.0000 </r>
       <r>   -0.4207    0.0000 </r>
       <r>   -0.3701    0.0000 </r>
       <r>   -0.3696    0.0000 </r>
       <r>   -0.2639    0.0000 </r>
       <r>   -0.2631    0.0000 </r>
       <r>   -0.2625    0.0000 </r>
       <r>   -0.2620    0.0000 </r>
       <r>   -0.0703    0.0000 </r>
       <r>   -0.0695    0.0000 </r>
       <r>   -0.0688    0.0000 </r>
       <r>   -0.0687    0.0000 </r>
       <r>    0.0004    0.0000 </r>
       <r>    0.0018    0.0000 </r>
       <r>    0.0531    0.0000 </r>
       <r>    0.0544    0.0000 </r>
       <r>    0.0557    0.0000 </r>
       <r>    0.0558    0.0000 </r>
       <r>    0.1719    0.0000 </r>
       <r>    0.1731    0.0000 </r>
       <r>    0.2208    0.0000 </r>
       <r>    0.2219    0.0000 </r>
       <r>    0.2279    0.0000 </r>
       <r>    0.2286    0.0000 </r>
       <r>    0.2291    0.0000 </r>
       <r>    0.2300    0.0000 </r>
       <r>    0.2966    0.0000 </r>
       <r>    0.2985    0.0000 </r>
      </set>
      <set comment="kpoint 6">
       <r>  -25.2698    1.0000 </r>
       <r>  -25.2687    1.0000 </r>
       <r>  -25.2683    1.0000 </r>
       <r>  -25.2681    1.0000 </r>
       <r>  -25.2680    1.0000 </r>
       <r>  -25.2674    1.0000 </r>
       <r>  -25.2673    1.0000 </r>
       <r>  -25.2670    1.0000 </r>
       <r>  -25.2670    1.0000 </r>
       <r>  -25.2669    1.0000 </r>
       <r>  -25.2669    1.0000 </r>
       <r>  -25.2657    1.0000 </r>
       <r>  -25.2656    1.0000 </r>
       <r>  -25.2654    1.0000 </r>
       <r>  -25.2654    1.0000 </r>
       <r>  -25.2651    1.0000 </r>
       <r>  -25.2649    1.0000 </r>
       <r>  -25.2649    1.0000 </r>
       <r>  -25.2649    1.0000 </r>
       <r>  -25.2643    1.0000 </r>
       <r>  -25.2641    1.0000 </r>
       <r>  -25.2635    1.0000 </r>
       <r>  -25.2634    1.0000 </r>
       <r>  -25.2626    1.0000 </r>
       <r>  -25.2625    1.0000 </r>
       <r>  -25.2613    1.0000 </r>
       <r>  -25.2611    1.0000 </r>
       <r>  -25.2585    1.0000 </r>
       <r>  -25.2583    1.0000 </r>
       <r>  -25.2541    1.0000 </r>
       <r>  -25.2541    1.0000 </r>
       <r>  -25.2539    1.0000 </r>
       <r>  -25.2538    1.0000 </r>
       <r>  -25.2515    1.0000 </r>
       <r>  -25.2513    1.0000 </r>
       <r>  -25.2512    1.0000 </r>
       <r>  -25.2511    1.0000 </r>
       <r>  -25.2501    1.0000 </r>
       <r>  -25.2500    1.0000 </r>
       <r>  -25.2499    1.0000 </r>
       <r>  -25.2498    1.0000 </r>
       <r>  -25.2498    1.0000 </r>
       <r>  -25.2495    1.0000 </r>
       <r>  -25.2495    1.0000 </r>
       <r>  -25.2495    1.0000 </r>
       <r>  -25.2472    1.0000 </r>
       <r>  -25.2471    1.0000 </r>
       <r>  -25.2469    1.0000 </r>
       <r>  -25.2469    1.0000 </r>
       <r>  -25.2456    1.0000 </r>
       <r>  -25.2326    1.0000 </r>
       <r>  -25.2322    1.0000 </r>
       <r>  -25.2316    1.0000 </r>
       <r>  -25.2314    1.0000 </r>
       <r>  -25.2313    1.0000 </r>
       <r>  -25.2306    1.0000 </r>
       <r>  -25.2305    1.0000 </r>
       <r>  -25.2300    1.0000 </r>
       <r>  -25.2299    1.0000 </r>
       <r>  -25.2299    1.0000 </r>
       <r>  -25.2299    1.0000 </r>
       <r>  -25.2299    1.0000 </r>
       <r>  -25.2298    1.0000 </r>
       <r>  -25.2291    1.0000 </r>
       <r>  -25.2290    1.0000 </r>
       <r>  -25.2289    1.0000 </r>
       <r>  -25.2288    1.0000 </r>
       <r>  -25.2278    1.0000 </r>
       <r>  -25.2278    1.0000 </r>
       <r>  -25.2275    1.0000 </r>
       <r>  -25.2275    1.0000 </r>
       <r>  -25.2268    1.0000 </r>
       <r>  -25.2266    1.0000 </r>
       <r>  -25.2258    1.0000 </r>
       <r>  -25.2251    1.0000 </r>
       <r>  -25.2250    1.0000 </r>
       <r>  -25.2249    1.0000 </r>
       <r>  -25.2249    1.0000 </r>
       <r>  -25.2248    1.0000 </r>
       <r>  -25.2245    1.0000 </r>
       <r>  -25.2239    1.0000 </r>
       <r>  -25.2237    1.0000 </r>
       <r>  -25.2236    1.0000 </r>
       <r>  -25.2236    1.0000 </r>
       <r>  -25.2236    1.0000 </r>
       <r>  -25.2235    1.0000 </r>
       <r>  -25.2235    1.0000 </r>
       <r>  -25.2234    1.0000 </r>
       <r>  -25.2234    1.0000 </r>
       <r>  -25.2234    1.0000 </r>
       <r>  -25.2233    1.0000 </r>
       <r>  -25.2233    1.0000 </r>
       <r>  -25.2232    1.0000 </r>
       <r>  -25.2231    1.0000 </r>
       <r>  -25.2230    1.0000 </r>
       <r>  -25.2229    1.0000 </r>
       <r>  -25.2229    1.0000 </r>
       <r>  -25.2228    1.0000 </r>
       <r>  -25.2226    1.0000 </r>
       <r>  -25.2225    1.0000 </r>
       <r>  -25.2126    1.0000 </r>
       <r>  -25.2120    1.0000 </r>
       <r>  -25.2105    1.0000 </r>
       <r>  -25.2101    1.0000 </r>
       <r>  -25.2079    1.0000 </r>
       <r>  -25.2070    1.0000 </r>
       <r>  -25.2069    1.0000 </r>
       <r>  -25.2069    1.0000 </r>
       <r>  -25.2059    1.0000 </r>
       <r>  -25.2057    1.0000 </r>
       <r>  -25.2044    1.0000 </r>
       <r>  -25.2038    1.0000 </r>
       <r>  -25.2037    1.0000 </r>
       <r>  -25.2037    1.0000 </r>
       <r>  -25.2028    1.0000 </r>
       <r>  -25.2023    1.0000 </r>
       <r>  -25.2022    1.0000 </r>
       <r>  -25.2022    1.0000 </r>
       <r>  -25.2019    1.0000 </r>
       <r>  -25.2019    1.0000 </r>
       <r>  -25.2018    1.0000 </r>
       <r>  -25.2017    1.0000 </r>
       <r>  -25.2016    1.0000 </r>
       <r>  -25.2015    1.0000 </r>
       <r>  -25.2014    1.0000 </r>
       <r>  -14.5202    1.0000 </r>
       <r>  -14.5192    1.0000 </r>
       <r>  -14.3457    1.0000 </r>
       <r>  -14.3445    1.0000 </r>
       <r>  -14.0157    1.0000 </r>
       <r>  -14.0155    1.0000 </r>
       <r>  -14.0154    1.0000 </r>
       <r>  -14.0135    1.0000 </r>
       <r>  -13.8649    1.0000 </r>
       <r>  -13.8641    1.0000 </r>
       <r>  -13.5872    1.0000 </r>
       <r>  -13.5868    1.0000 </r>
       <r>  -13.5868    1.0000 </r>
       <r>  -13.5849    1.0000 </r>
       <r>  -13.2408    1.0000 </r>
       <r>  -13.2407    1.0000 </r>
       <r>  -13.2406    1.0000 </r>
       <r>  -13.2394    1.0000 </r>
       <r>  -13.2192    1.0000 </r>
       <r>  -13.2190    1.0000 </r>
       <r>  -13.2189    1.0000 </r>
       <r>  -13.2177    1.0000 </r>
       <r>  -13.2049    1.0000 </r>
       <r>  -12.9622    1.0000 </r>
       <r>  -12.9616    1.0000 </r>
       <r>  -11.1266    1.0000 </r>
       <r>  -11.1259    1.0000 </r>
       <r>  -10.9873    1.0000 </r>
       <r>  -10.9469    1.0000 </r>
       <r>  -10.9461    1.0000 </r>
       <r>  -10.9460    1.0000 </r>
       <r>  -10.9449    1.0000 </r>
       <r>  -10.8790    1.0000 </r>
       <r>  -10.8785    1.0000 </r>
       <r>  -10.8784    1.0000 </r>
       <r>  -10.8778    1.0000 </r>
       <r>  -10.5770    1.0000 </r>
       <r>  -10.5756    1.0000 </r>
       <r>  -10.5756    1.0000 </r>
       <r>  -10.5748    1.0000 </r>
       <r>  -10.3376    1.0000 </r>
       <r>  -10.3366    1.0000 </r>
       <r>  -10.2131    1.0000 </r>
       <r>  -10.2111    1.0000 </r>
       <r>  -10.2110    1.0000 </r>
       <r>  -10.2107    1.0000 </r>
       <r>  -10.0199    1.0000 </r>
       <r>  -10.0186    1.0000 </r>
       <r>   -9.9577    1.0000 </r>
       <r>   -9.9564    1.0000 </r>
       <r>   -5.9946    1.0000 </r>
       <r>   -5.9940    1.0000 </r>
       <r>   -5.7671    1.0000 </r>
       <r>   -5.7586    1.0000 </r>
       <r>   -5.7582    1.0000 </r>
       <r>   -5.7580    1.0000 </r>
       <r>   -5.7575    1.0000 </r>
       <r>   -5.6798    1.0000 </r>
       <r>   -5.6797    1.0000 </r>
       <r>   -5.6795    1.0000 </r>
       <r>   -5.6786    1.0000 </r>
       <r>   -5.6347    1.0000 </r>
       <r>   -5.6344    1.0000 </r>
       <r>   -5.6342    1.0000 </r>
       <r>   -5.6339    1.0000 </r>
       <r>   -5.5367    1.0000 </r>
       <r>   -5.5363    1.0000 </r>
       <r>   -5.2364    1.0000 </r>
       <r>   -5.2359    1.0000 </r>
       <r>   -5.2355    1.0000 </r>
       <r>   -5.2350    1.0000 </r>
       <r>   -5.1315    1.0000 </r>
       <r>   -5.1312    1.0000 </r>
       <r>   -5.1311    1.0000 </r>
       <r>   -5.1304    1.0000 </r>
       <r>   -4.9021    1.0000 </r>
       <r>   -4.9020    1.0000 </r>
       <r>   -4.6290    1.0000 </r>
       <r>   -4.6290    1.0000 </r>
       <r>   -4.6284    1.0000 </r>
       <r>   -4.6279    1.0000 </r>
       <r>   -4.5835    1.0000 </r>
       <r>   -4.5833    1.0000 </r>
       <r>   -4.5830    1.0000 </r>
       <r>   -4.5821    1.0000 </r>
       <r>   -4.5315    1.0000 </r>
       <r>   -4.5314    1.0000 </r>
       <r>   -4.3952    1.0000 </r>
       <r>   -4.3944    1.0000 </r>
       <r>   -4.3193    1.0000 </r>
       <r>   -4.2868    1.0000 </r>
       <r>   -4.2053    1.0000 </r>
       <r>   -4.2044    1.0000 </r>
       <r>   -4.2040    1.0000 </r>
       <r>   -4.2039    1.0000 </r>
       <r>   -4.2039    1.0000 </r>
       <r>   -4.2038    1.0000 </r>
       <r>   -4.2029    1.0000 </r>
       <r>   -4.2024    1.0000 </r>
       <r>   -4.0176    1.0000 </r>
       <r>   -4.0169    1.0000 </r>
       <r>   -4.0165    1.0000 </r>
       <r>   -4.0164    1.0000 </r>
       <r>   -3.9141    1.0000 </r>
       <r>   -3.9130    1.0000 </r>
       <r>   -3.7781    1.0000 </r>
       <r>   -3.7778    1.0000 </r>
       <r>   -3.7492    1.0000 </r>
       <r>   -3.7480    1.0000 </r>
       <r>   -3.7478    1.0000 </r>
       <r>   -3.7478    1.0000 </r>
       <r>   -3.6387    1.0000 </r>
       <r>   -3.6378    1.0000 </r>
       <r>   -3.5888    1.0000 </r>
       <r>   -3.5884    1.0000 </r>
       <r>   -3.4150    1.0000 </r>
       <r>   -3.4131    1.0000 </r>
       <r>   -3.4129    1.0000 </r>
       <r>   -3.4128    1.0000 </r>
       <r>   -3.4043    1.0000 </r>
       <r>   -3.4032    1.0000 </r>
       <r>   -3.3444    1.0000 </r>
       <r>   -3.3436    1.0000 </r>
       <r>   -3.0653    1.0000 </r>
       <r>   -3.0643    1.0000 </r>
       <r>   -1.7137    0.0000 </r>
       <r>   -1.7133    0.0000 </r>
       <r>   -1.3189    0.0000 </r>
       <r>   -1.2417    0.0000 </r>
       <r>   -1.2402    0.0000 </r>
       <r>   -1.2398    0.0000 </r>
       <r>   -1.2394    0.0000 </r>
       <r>   -1.2384    0.0000 </r>
       <r>   -1.2380    0.0000 </r>
       <r>   -1.2277    0.0000 </r>
       <r>   -1.2275    0.0000 </r>
       <r>   -1.2108    0.0000 </r>
       <r>   -1.2102    0.0000 </r>
       <r>   -1.2098    0.0000 </r>
       <r>   -1.2097    0.0000 </r>
       <r>   -0.9434    0.0000 </r>
       <r>   -0.9425    0.0000 </r>
       <r>   -0.9421    0.0000 </r>
       <r>   -0.9421    0.0000 </r>
       <r>   -0.9082    0.0000 </r>
       <r>   -0.9077    0.0000 </r>
       <r>   -0.8617    0.0000 </r>
       <r>   -0.8603    0.0000 </r>
       <r>   -0.8595    0.0000 </r>
       <r>   -0.8595    0.0000 </r>
       <r>   -0.5339    0.0000 </r>
       <r>   -0.5331    0.0000 </r>
       <r>   -0.4723    0.0000 </r>
       <r>   -0.4227    0.0000 </r>
       <r>   -0.4219    0.0000 </r>
       <r>   -0.4215    0.0000 </r>
       <r>   -0.4209    0.0000 </r>
       <r>   -0.3705    0.0000 </r>
       <r>   -0.3699    0.0000 </r>
       <r>   -0.2642    0.0000 </r>
       <r>   -0.2627    0.0000 </r>
       <r>   -0.2624    0.0000 </r>
       <r>   -0.2620    0.0000 </r>
       <r>   -0.0702    0.0000 </r>
       <r>   -0.0689    0.0000 </r>
       <r>   -0.0688    0.0000 </r>
       <r>   -0.0686    0.0000 </r>
       <r>    0.0012    0.0000 </r>
       <r>    0.0018    0.0000 </r>
       <r>    0.0537    0.0000 </r>
       <r>    0.0552    0.0000 </r>
       <r>    0.0558    0.0000 </r>
       <r>    0.0559    0.0000 </r>
       <r>    0.1715    0.0000 </r>
       <r>    0.1729    0.0000 </r>
       <r>    0.2210    0.0000 </r>
       <r>    0.2220    0.0000 </r>
       <r>    0.2276    0.0000 </r>
       <r>    0.2284    0.0000 </r>
       <r>    0.2289    0.0000 </r>
       <r>    0.2295    0.0000 </r>
       <r>    0.2977    0.0000 </r>
       <r>    0.2983    0.0000 </r>
      </set>
      <set comment="kpoint 7">
       <r>  -25.2698    1.0000 </r>
       <r>  -25.2687    1.0000 </r>
       <r>  -25.2682    1.0000 </r>
       <r>  -25.2681    1.0000 </r>
       <r>  -25.2680    1.0000 </r>
       <r>  -25.2673    1.0000 </r>
       <r>  -25.2673    1.0000 </r>
       <r>  -25.2670    1.0000 </r>
       <r>  -25.2669    1.0000 </r>
       <r>  -25.2669    1.0000 </r>
       <r>  -25.2669    1.0000 </r>
       <r>  -25.2658    1.0000 </r>
       <r>  -25.2657    1.0000 </r>
       <r>  -25.2654    1.0000 </r>
       <r>  -25.2654    1.0000 </r>
       <r>  -25.2651    1.0000 </r>
       <r>  -25.2650    1.0000 </r>
       <r>  -25.2649    1.0000 </r>
       <r>  -25.2648    1.0000 </r>
       <r>  -25.2643    1.0000 </r>
       <r>  -25.2641    1.0000 </r>
       <r>  -25.2636    1.0000 </r>
       <r>  -25.2633    1.0000 </r>
       <r>  -25.2626    1.0000 </r>
       <r>  -25.2625    1.0000 </r>
       <r>  -25.2614    1.0000 </r>
       <r>  -25.2611    1.0000 </r>
       <r>  -25.2585    1.0000 </r>
       <r>  -25.2583    1.0000 </r>
       <r>  -25.2541    1.0000 </r>
       <r>  -25.2541    1.0000 </r>
       <r>  -25.2539    1.0000 </r>
       <r>  -25.2539    1.0000 </r>
       <r>  -25.2515    1.0000 </r>
       <r>  -25.2513    1.0000 </r>
       <r>  -25.2512    1.0000 </r>
       <r>  -25.2511    1.0000 </r>
       <r>  -25.2502    1.0000 </r>
       <r>  -25.2500    1.0000 </r>
       <r>  -25.2499    1.0000 </r>
       <r>  -25.2498    1.0000 </r>
       <r>  -25.2497    1.0000 </r>
       <r>  -25.2496    1.0000 </r>
       <r>  -25.2495    1.0000 </r>
       <r>  -25.2495    1.0000 </r>
       <r>  -25.2472    1.0000 </r>
       <r>  -25.2471    1.0000 </r>
       <r>  -25.2469    1.0000 </r>
       <r>  -25.2469    1.0000 </r>
       <r>  -25.2456    1.0000 </r>
       <r>  -25.2325    1.0000 </r>
       <r>  -25.2323    1.0000 </r>
       <r>  -25.2316    1.0000 </r>
       <r>  -25.2314    1.0000 </r>
       <r>  -25.2313    1.0000 </r>
       <r>  -25.2306    1.0000 </r>
       <r>  -25.2305    1.0000 </r>
       <r>  -25.2300    1.0000 </r>
       <r>  -25.2299    1.0000 </r>
       <r>  -25.2299    1.0000 </r>
       <r>  -25.2299    1.0000 </r>
       <r>  -25.2298    1.0000 </r>
       <r>  -25.2298    1.0000 </r>
       <r>  -25.2291    1.0000 </r>
       <r>  -25.2290    1.0000 </r>
       <r>  -25.2288    1.0000 </r>
       <r>  -25.2288    1.0000 </r>
       <r>  -25.2278    1.0000 </r>
       <r>  -25.2278    1.0000 </r>
       <r>  -25.2276    1.0000 </r>
       <r>  -25.2275    1.0000 </r>
       <r>  -25.2268    1.0000 </r>
       <r>  -25.2266    1.0000 </r>
       <r>  -25.2258    1.0000 </r>
       <r>  -25.2251    1.0000 </r>
       <r>  -25.2250    1.0000 </r>
       <r>  -25.2249    1.0000 </r>
       <r>  -25.2248    1.0000 </r>
       <r>  -25.2248    1.0000 </r>
       <r>  -25.2244    1.0000 </r>
       <r>  -25.2239    1.0000 </r>
       <r>  -25.2237    1.0000 </r>
       <r>  -25.2236    1.0000 </r>
       <r>  -25.2236    1.0000 </r>
       <r>  -25.2235    1.0000 </r>
       <r>  -25.2235    1.0000 </r>
       <r>  -25.2235    1.0000 </r>
       <r>  -25.2234    1.0000 </r>
       <r>  -25.2234    1.0000 </r>
       <r>  -25.2234    1.0000 </r>
       <r>  -25.2233    1.0000 </r>
       <r>  -25.2233    1.0000 </r>
       <r>  -25.2233    1.0000 </r>
       <r>  -25.2232    1.0000 </r>
       <r>  -25.2230    1.0000 </r>
       <r>  -25.2229    1.0000 </r>
       <r>  -25.2229    1.0000 </r>
       <r>  -25.2228    1.0000 </r>
       <r>  -25.2226    1.0000 </r>
       <r>  -25.2225    1.0000 </r>
       <r>  -25.2126    1.0000 </r>
       <r>  -25.2120    1.0000 </r>
       <r>  -25.2106    1.0000 </r>
       <r>  -25.2101    1.0000 </r>
       <r>  -25.2078    1.0000 </r>
       <r>  -25.2070    1.0000 </r>
       <r>  -25.2069    1.0000 </r>
       <r>  -25.2069    1.0000 </r>
       <r>  -25.2060    1.0000 </r>
       <r>  -25.2056    1.0000 </r>
       <r>  -25.2045    1.0000 </r>
       <r>  -25.2038    1.0000 </r>
       <r>  -25.2037    1.0000 </r>
       <r>  -25.2037    1.0000 </r>
       <r>  -25.2028    1.0000 </r>
       <r>  -25.2023    1.0000 </r>
       <r>  -25.2022    1.0000 </r>
       <r>  -25.2021    1.0000 </r>
       <r>  -25.2020    1.0000 </r>
       <r>  -25.2019    1.0000 </r>
       <r>  -25.2018    1.0000 </r>
       <r>  -25.2017    1.0000 </r>
       <r>  -25.2016    1.0000 </r>
       <r>  -25.2014    1.0000 </r>
       <r>  -25.2014    1.0000 </r>
       <r>  -14.5202    1.0000 </r>
       <r>  -14.5193    1.0000 </r>
       <r>  -14.3456    1.0000 </r>
       <r>  -14.3445    1.0000 </r>
       <r>  -14.0157    1.0000 </r>
       <r>  -14.0154    1.0000 </r>
       <r>  -14.0154    1.0000 </r>
       <r>  -14.0135    1.0000 </r>
       <r>  -13.8651    1.0000 </r>
       <r>  -13.8642    1.0000 </r>
       <r>  -13.5870    1.0000 </r>
       <r>  -13.5868    1.0000 </r>
       <r>  -13.5867    1.0000 </r>
       <r>  -13.5849    1.0000 </r>
       <r>  -13.2409    1.0000 </r>
       <r>  -13.2407    1.0000 </r>
       <r>  -13.2406    1.0000 </r>
       <r>  -13.2397    1.0000 </r>
       <r>  -13.2192    1.0000 </r>
       <r>  -13.2190    1.0000 </r>
       <r>  -13.2189    1.0000 </r>
       <r>  -13.2173    1.0000 </r>
       <r>  -13.2051    1.0000 </r>
       <r>  -12.9621    1.0000 </r>
       <r>  -12.9615    1.0000 </r>
       <r>  -11.1265    1.0000 </r>
       <r>  -11.1262    1.0000 </r>
       <r>  -10.9869    1.0000 </r>
       <r>  -10.9469    1.0000 </r>
       <r>  -10.9461    1.0000 </r>
       <r>  -10.9459    1.0000 </r>
       <r>  -10.9455    1.0000 </r>
       <r>  -10.8789    1.0000 </r>
       <r>  -10.8785    1.0000 </r>
       <r>  -10.8784    1.0000 </r>
       <r>  -10.8770    1.0000 </r>
       <r>  -10.5772    1.0000 </r>
       <r>  -10.5756    1.0000 </r>
       <r>  -10.5755    1.0000 </r>
       <r>  -10.5754    1.0000 </r>
       <r>  -10.3375    1.0000 </r>
       <r>  -10.3364    1.0000 </r>
       <r>  -10.2131    1.0000 </r>
       <r>  -10.2110    1.0000 </r>
       <r>  -10.2110    1.0000 </r>
       <r>  -10.2107    1.0000 </r>
       <r>  -10.0200    1.0000 </r>
       <r>  -10.0186    1.0000 </r>
       <r>   -9.9578    1.0000 </r>
       <r>   -9.9563    1.0000 </r>
       <r>   -5.9945    1.0000 </r>
       <r>   -5.9940    1.0000 </r>
       <r>   -5.7673    1.0000 </r>
       <r>   -5.7583    1.0000 </r>
       <r>   -5.7581    1.0000 </r>
       <r>   -5.7580    1.0000 </r>
       <r>   -5.7576    1.0000 </r>
       <r>   -5.6801    1.0000 </r>
       <r>   -5.6797    1.0000 </r>
       <r>   -5.6795    1.0000 </r>
       <r>   -5.6788    1.0000 </r>
       <r>   -5.6350    1.0000 </r>
       <r>   -5.6342    1.0000 </r>
       <r>   -5.6341    1.0000 </r>
       <r>   -5.6339    1.0000 </r>
       <r>   -5.5365    1.0000 </r>
       <r>   -5.5363    1.0000 </r>
       <r>   -5.2364    1.0000 </r>
       <r>   -5.2358    1.0000 </r>
       <r>   -5.2354    1.0000 </r>
       <r>   -5.2351    1.0000 </r>
       <r>   -5.1313    1.0000 </r>
       <r>   -5.1312    1.0000 </r>
       <r>   -5.1310    1.0000 </r>
       <r>   -5.1308    1.0000 </r>
       <r>   -4.9022    1.0000 </r>
       <r>   -4.9018    1.0000 </r>
       <r>   -4.6290    1.0000 </r>
       <r>   -4.6289    1.0000 </r>
       <r>   -4.6285    1.0000 </r>
       <r>   -4.6276    1.0000 </r>
       <r>   -4.5835    1.0000 </r>
       <r>   -4.5832    1.0000 </r>
       <r>   -4.5828    1.0000 </r>
       <r>   -4.5821    1.0000 </r>
       <r>   -4.5320    1.0000 </r>
       <r>   -4.5314    1.0000 </r>
       <r>   -4.3951    1.0000 </r>
       <r>   -4.3947    1.0000 </r>
       <r>   -4.3190    1.0000 </r>
       <r>   -4.2869    1.0000 </r>
       <r>   -4.2053    1.0000 </r>
       <r>   -4.2047    1.0000 </r>
       <r>   -4.2042    1.0000 </r>
       <r>   -4.2040    1.0000 </r>
       <r>   -4.2039    1.0000 </r>
       <r>   -4.2038    1.0000 </r>
       <r>   -4.2032    1.0000 </r>
       <r>   -4.2023    1.0000 </r>
       <r>   -4.0172    1.0000 </r>
       <r>   -4.0169    1.0000 </r>
       <r>   -4.0165    1.0000 </r>
       <r>   -4.0164    1.0000 </r>
       <r>   -3.9141    1.0000 </r>
       <r>   -3.9133    1.0000 </r>
       <r>   -3.7781    1.0000 </r>
       <r>   -3.7772    1.0000 </r>
       <r>   -3.7489    1.0000 </r>
       <r>   -3.7483    1.0000 </r>
       <r>   -3.7478    1.0000 </r>
       <r>   -3.7477    1.0000 </r>
       <r>   -3.6385    1.0000 </r>
       <r>   -3.6377    1.0000 </r>
       <r>   -3.5886    1.0000 </r>
       <r>   -3.5881    1.0000 </r>
       <r>   -3.4152    1.0000 </r>
       <r>   -3.4131    1.0000 </r>
       <r>   -3.4129    1.0000 </r>
       <r>   -3.4128    1.0000 </r>
       <r>   -3.4044    1.0000 </r>
       <r>   -3.4031    1.0000 </r>
       <r>   -3.3441    1.0000 </r>
       <r>   -3.3436    1.0000 </r>
       <r>   -3.0653    1.0000 </r>
       <r>   -3.0650    1.0000 </r>
       <r>   -1.7140    0.0000 </r>
       <r>   -1.7134    0.0000 </r>
       <r>   -1.3190    0.0000 </r>
       <r>   -1.2413    0.0000 </r>
       <r>   -1.2406    0.0000 </r>
       <r>   -1.2398    0.0000 </r>
       <r>   -1.2394    0.0000 </r>
       <r>   -1.2382    0.0000 </r>
       <r>   -1.2380    0.0000 </r>
       <r>   -1.2277    0.0000 </r>
       <r>   -1.2275    0.0000 </r>
       <r>   -1.2108    0.0000 </r>
       <r>   -1.2104    0.0000 </r>
       <r>   -1.2096    0.0000 </r>
       <r>   -1.2095    0.0000 </r>
       <r>   -0.9428    0.0000 </r>
       <r>   -0.9424    0.0000 </r>
       <r>   -0.9421    0.0000 </r>
       <r>   -0.9418    0.0000 </r>
       <r>   -0.9079    0.0000 </r>
       <r>   -0.9077    0.0000 </r>
       <r>   -0.8624    0.0000 </r>
       <r>   -0.8602    0.0000 </r>
       <r>   -0.8595    0.0000 </r>
       <r>   -0.8594    0.0000 </r>
       <r>   -0.5341    0.0000 </r>
       <r>   -0.5332    0.0000 </r>
       <r>   -0.4727    0.0000 </r>
       <r>   -0.4227    0.0000 </r>
       <r>   -0.4221    0.0000 </r>
       <r>   -0.4216    0.0000 </r>
       <r>   -0.4211    0.0000 </r>
       <r>   -0.3713    0.0000 </r>
       <r>   -0.3698    0.0000 </r>
       <r>   -0.2637    0.0000 </r>
       <r>   -0.2631    0.0000 </r>
       <r>   -0.2623    0.0000 </r>
       <r>   -0.2621    0.0000 </r>
       <r>   -0.0696    0.0000 </r>
       <r>   -0.0689    0.0000 </r>
       <r>   -0.0689    0.0000 </r>
       <r>   -0.0683    0.0000 </r>
       <r>    0.0017    0.0000 </r>
       <r>    0.0022    0.0000 </r>
       <r>    0.0546    0.0000 </r>
       <r>    0.0555    0.0000 </r>
       <r>    0.0559    0.0000 </r>
       <r>    0.0561    0.0000 </r>
       <r>    0.1712    0.0000 </r>
       <r>    0.1726    0.0000 </r>
       <r>    0.2217    0.0000 </r>
       <r>    0.2220    0.0000 </r>
       <r>    0.2274    0.0000 </r>
       <r>    0.2279    0.0000 </r>
       <r>    0.2289    0.0000 </r>
       <r>    0.2295    0.0000 </r>
       <r>    0.2975    0.0000 </r>
       <r>    0.2982    0.0000 </r>
      </set>
      <set comment="kpoint 8">
       <r>  -25.2695    1.0000 </r>
       <r>  -25.2693    1.0000 </r>
       <r>  -25.2685    1.0000 </r>
       <r>  -25.2679    1.0000 </r>
       <r>  -25.2676    1.0000 </r>
       <r>  -25.2675    1.0000 </r>
       <r>  -25.2673    1.0000 </r>
       <r>  -25.2668    1.0000 </r>
       <r>  -25.2665    1.0000 </r>
       <r>  -25.2664    1.0000 </r>
       <r>  -25.2664    1.0000 </r>
       <r>  -25.2662    1.0000 </r>
       <r>  -25.2661    1.0000 </r>
       <r>  -25.2661    1.0000 </r>
       <r>  -25.2661    1.0000 </r>
       <r>  -25.2651    1.0000 </r>
       <r>  -25.2649    1.0000 </r>
       <r>  -25.2647    1.0000 </r>
       <r>  -25.2643    1.0000 </r>
       <r>  -25.2639    1.0000 </r>
       <r>  -25.2638    1.0000 </r>
       <r>  -25.2636    1.0000 </r>
       <r>  -25.2635    1.0000 </r>
       <r>  -25.2633    1.0000 </r>
       <r>  -25.2621    1.0000 </r>
       <r>  -25.2616    1.0000 </r>
       <r>  -25.2601    1.0000 </r>
       <r>  -25.2600    1.0000 </r>
       <r>  -25.2564    1.0000 </r>
       <r>  -25.2562    1.0000 </r>
       <r>  -25.2545    1.0000 </r>
       <r>  -25.2528    1.0000 </r>
       <r>  -25.2526    1.0000 </r>
       <r>  -25.2519    1.0000 </r>
       <r>  -25.2516    1.0000 </r>
       <r>  -25.2515    1.0000 </r>
       <r>  -25.2508    1.0000 </r>
       <r>  -25.2505    1.0000 </r>
       <r>  -25.2505    1.0000 </r>
       <r>  -25.2502    1.0000 </r>
       <r>  -25.2501    1.0000 </r>
       <r>  -25.2496    1.0000 </r>
       <r>  -25.2495    1.0000 </r>
       <r>  -25.2486    1.0000 </r>
       <r>  -25.2484    1.0000 </r>
       <r>  -25.2482    1.0000 </r>
       <r>  -25.2479    1.0000 </r>
       <r>  -25.2467    1.0000 </r>
       <r>  -25.2460    1.0000 </r>
       <r>  -25.2459    1.0000 </r>
       <r>  -25.2326    1.0000 </r>
       <r>  -25.2322    1.0000 </r>
       <r>  -25.2317    1.0000 </r>
       <r>  -25.2312    1.0000 </r>
       <r>  -25.2311    1.0000 </r>
       <r>  -25.2307    1.0000 </r>
       <r>  -25.2306    1.0000 </r>
       <r>  -25.2303    1.0000 </r>
       <r>  -25.2302    1.0000 </r>
       <r>  -25.2298    1.0000 </r>
       <r>  -25.2297    1.0000 </r>
       <r>  -25.2295    1.0000 </r>
       <r>  -25.2294    1.0000 </r>
       <r>  -25.2294    1.0000 </r>
       <r>  -25.2290    1.0000 </r>
       <r>  -25.2288    1.0000 </r>
       <r>  -25.2285    1.0000 </r>
       <r>  -25.2284    1.0000 </r>
       <r>  -25.2281    1.0000 </r>
       <r>  -25.2275    1.0000 </r>
       <r>  -25.2272    1.0000 </r>
       <r>  -25.2266    1.0000 </r>
       <r>  -25.2263    1.0000 </r>
       <r>  -25.2259    1.0000 </r>
       <r>  -25.2258    1.0000 </r>
       <r>  -25.2253    1.0000 </r>
       <r>  -25.2247    1.0000 </r>
       <r>  -25.2246    1.0000 </r>
       <r>  -25.2242    1.0000 </r>
       <r>  -25.2242    1.0000 </r>
       <r>  -25.2241    1.0000 </r>
       <r>  -25.2241    1.0000 </r>
       <r>  -25.2239    1.0000 </r>
       <r>  -25.2236    1.0000 </r>
       <r>  -25.2236    1.0000 </r>
       <r>  -25.2235    1.0000 </r>
       <r>  -25.2235    1.0000 </r>
       <r>  -25.2234    1.0000 </r>
       <r>  -25.2233    1.0000 </r>
       <r>  -25.2232    1.0000 </r>
       <r>  -25.2232    1.0000 </r>
       <r>  -25.2232    1.0000 </r>
       <r>  -25.2231    1.0000 </r>
       <r>  -25.2231    1.0000 </r>
       <r>  -25.2231    1.0000 </r>
       <r>  -25.2230    1.0000 </r>
       <r>  -25.2230    1.0000 </r>
       <r>  -25.2227    1.0000 </r>
       <r>  -25.2227    1.0000 </r>
       <r>  -25.2225    1.0000 </r>
       <r>  -25.2127    1.0000 </r>
       <r>  -25.2117    1.0000 </r>
       <r>  -25.2112    1.0000 </r>
       <r>  -25.2091    1.0000 </r>
       <r>  -25.2086    1.0000 </r>
       <r>  -25.2075    1.0000 </r>
       <r>  -25.2068    1.0000 </r>
       <r>  -25.2064    1.0000 </r>
       <r>  -25.2057    1.0000 </r>
       <r>  -25.2053    1.0000 </r>
       <r>  -25.2049    1.0000 </r>
       <r>  -25.2047    1.0000 </r>
       <r>  -25.2035    1.0000 </r>
       <r>  -25.2029    1.0000 </r>
       <r>  -25.2028    1.0000 </r>
       <r>  -25.2025    1.0000 </r>
       <r>  -25.2025    1.0000 </r>
       <r>  -25.2022    1.0000 </r>
       <r>  -25.2020    1.0000 </r>
       <r>  -25.2019    1.0000 </r>
       <r>  -25.2017    1.0000 </r>
       <r>  -25.2016    1.0000 </r>
       <r>  -25.2016    1.0000 </r>
       <r>  -25.2015    1.0000 </r>
       <r>  -25.2014    1.0000 </r>
       <r>  -14.5419    1.0000 </r>
       <r>  -14.4541    1.0000 </r>
       <r>  -14.4531    1.0000 </r>
       <r>  -14.1978    1.0000 </r>
       <r>  -14.1967    1.0000 </r>
       <r>  -14.0343    1.0000 </r>
       <r>  -13.9582    1.0000 </r>
       <r>  -13.9573    1.0000 </r>
       <r>  -13.8073    1.0000 </r>
       <r>  -13.8064    1.0000 </r>
       <r>  -13.7393    1.0000 </r>
       <r>  -13.7383    1.0000 </r>
       <r>  -13.4163    1.0000 </r>
       <r>  -13.4154    1.0000 </r>
       <r>  -13.3781    1.0000 </r>
       <r>  -13.3775    1.0000 </r>
       <r>  -13.2439    1.0000 </r>
       <r>  -13.2310    1.0000 </r>
       <r>  -13.2303    1.0000 </r>
       <r>  -13.2091    1.0000 </r>
       <r>  -13.2082    1.0000 </r>
       <r>  -13.1576    1.0000 </r>
       <r>  -13.0800    1.0000 </r>
       <r>  -13.0794    1.0000 </r>
       <r>  -12.9177    1.0000 </r>
       <r>  -11.1659    1.0000 </r>
       <r>  -11.0211    1.0000 </r>
       <r>  -11.0205    1.0000 </r>
       <r>  -11.0096    1.0000 </r>
       <r>  -10.9764    1.0000 </r>
       <r>  -10.9758    1.0000 </r>
       <r>  -10.9092    1.0000 </r>
       <r>  -10.9087    1.0000 </r>
       <r>  -10.8670    1.0000 </r>
       <r>  -10.7824    1.0000 </r>
       <r>  -10.7814    1.0000 </r>
       <r>  -10.7248    1.0000 </r>
       <r>  -10.7238    1.0000 </r>
       <r>  -10.4448    1.0000 </r>
       <r>  -10.4438    1.0000 </r>
       <r>  -10.3760    1.0000 </r>
       <r>  -10.3749    1.0000 </r>
       <r>  -10.2595    1.0000 </r>
       <r>  -10.2584    1.0000 </r>
       <r>  -10.1958    1.0000 </r>
       <r>  -10.0944    1.0000 </r>
       <r>  -10.0932    1.0000 </r>
       <r>   -9.9780    1.0000 </r>
       <r>   -9.9765    1.0000 </r>
       <r>   -9.9512    1.0000 </r>
       <r>   -6.0468    1.0000 </r>
       <r>   -5.8504    1.0000 </r>
       <r>   -5.8496    1.0000 </r>
       <r>   -5.7687    1.0000 </r>
       <r>   -5.7663    1.0000 </r>
       <r>   -5.7660    1.0000 </r>
       <r>   -5.7306    1.0000 </r>
       <r>   -5.7299    1.0000 </r>
       <r>   -5.7201    1.0000 </r>
       <r>   -5.7197    1.0000 </r>
       <r>   -5.6433    1.0000 </r>
       <r>   -5.6222    1.0000 </r>
       <r>   -5.6219    1.0000 </r>
       <r>   -5.6154    1.0000 </r>
       <r>   -5.6153    1.0000 </r>
       <r>   -5.4778    1.0000 </r>
       <r>   -5.4776    1.0000 </r>
       <r>   -5.3994    1.0000 </r>
       <r>   -5.3992    1.0000 </r>
       <r>   -5.2311    1.0000 </r>
       <r>   -5.1472    1.0000 </r>
       <r>   -5.0674    1.0000 </r>
       <r>   -5.0670    1.0000 </r>
       <r>   -4.9498    1.0000 </r>
       <r>   -4.9494    1.0000 </r>
       <r>   -4.9125    1.0000 </r>
       <r>   -4.9121    1.0000 </r>
       <r>   -4.9025    1.0000 </r>
       <r>   -4.9020    1.0000 </r>
       <r>   -4.7774    1.0000 </r>
       <r>   -4.6479    1.0000 </r>
       <r>   -4.6473    1.0000 </r>
       <r>   -4.5860    1.0000 </r>
       <r>   -4.5256    1.0000 </r>
       <r>   -4.4324    1.0000 </r>
       <r>   -4.4317    1.0000 </r>
       <r>   -4.3915    1.0000 </r>
       <r>   -4.3910    1.0000 </r>
       <r>   -4.3171    1.0000 </r>
       <r>   -4.3167    1.0000 </r>
       <r>   -4.2839    1.0000 </r>
       <r>   -4.2836    1.0000 </r>
       <r>   -4.1990    1.0000 </r>
       <r>   -4.1987    1.0000 </r>
       <r>   -4.1802    1.0000 </r>
       <r>   -4.1795    1.0000 </r>
       <r>   -4.1322    1.0000 </r>
       <r>   -4.1317    1.0000 </r>
       <r>   -4.1028    1.0000 </r>
       <r>   -4.1021    1.0000 </r>
       <r>   -3.9954    1.0000 </r>
       <r>   -3.9945    1.0000 </r>
       <r>   -3.9843    1.0000 </r>
       <r>   -3.9838    1.0000 </r>
       <r>   -3.9832    1.0000 </r>
       <r>   -3.9128    1.0000 </r>
       <r>   -3.9122    1.0000 </r>
       <r>   -3.8636    1.0000 </r>
       <r>   -3.8631    1.0000 </r>
       <r>   -3.6846    1.0000 </r>
       <r>   -3.6838    1.0000 </r>
       <r>   -3.6111    1.0000 </r>
       <r>   -3.5466    1.0000 </r>
       <r>   -3.5458    1.0000 </r>
       <r>   -3.5002    1.0000 </r>
       <r>   -3.4993    1.0000 </r>
       <r>   -3.4110    1.0000 </r>
       <r>   -3.3983    1.0000 </r>
       <r>   -3.3970    1.0000 </r>
       <r>   -3.3891    1.0000 </r>
       <r>   -3.3557    1.0000 </r>
       <r>   -3.3546    1.0000 </r>
       <r>   -3.2419    1.0000 </r>
       <r>   -3.2413    1.0000 </r>
       <r>   -3.0327    1.0000 </r>
       <r>   -1.5715    0.0000 </r>
       <r>   -1.5710    0.0000 </r>
       <r>   -1.5655    0.0000 </r>
       <r>   -1.5646    0.0000 </r>
       <r>   -1.2992    0.0000 </r>
       <r>   -1.2796    0.0000 </r>
       <r>   -1.2787    0.0000 </r>
       <r>   -1.2607    0.0000 </r>
       <r>   -1.1945    0.0000 </r>
       <r>   -1.1939    0.0000 </r>
       <r>   -1.1165    0.0000 </r>
       <r>   -1.1157    0.0000 </r>
       <r>   -1.0702    0.0000 </r>
       <r>   -1.0685    0.0000 </r>
       <r>   -1.0629    0.0000 </r>
       <r>   -1.0623    0.0000 </r>
       <r>   -1.0487    0.0000 </r>
       <r>   -1.0482    0.0000 </r>
       <r>   -0.9302    0.0000 </r>
       <r>   -0.9101    0.0000 </r>
       <r>   -0.9093    0.0000 </r>
       <r>   -0.8828    0.0000 </r>
       <r>   -0.8359    0.0000 </r>
       <r>   -0.8351    0.0000 </r>
       <r>   -0.8107    0.0000 </r>
       <r>   -0.5751    0.0000 </r>
       <r>   -0.4699    0.0000 </r>
       <r>   -0.4695    0.0000 </r>
       <r>   -0.4544    0.0000 </r>
       <r>   -0.4537    0.0000 </r>
       <r>   -0.4169    0.0000 </r>
       <r>   -0.3302    0.0000 </r>
       <r>   -0.3104    0.0000 </r>
       <r>   -0.3097    0.0000 </r>
       <r>   -0.2807    0.0000 </r>
       <r>   -0.2797    0.0000 </r>
       <r>   -0.2795    0.0000 </r>
       <r>   -0.2255    0.0000 </r>
       <r>   -0.2238    0.0000 </r>
       <r>   -0.1819    0.0000 </r>
       <r>   -0.1805    0.0000 </r>
       <r>   -0.0278    0.0000 </r>
       <r>   -0.0262    0.0000 </r>
       <r>   -0.0167    0.0000 </r>
       <r>    0.0847    0.0000 </r>
       <r>    0.0858    0.0000 </r>
       <r>    0.1230    0.0000 </r>
       <r>    0.1235    0.0000 </r>
       <r>    0.1801    0.0000 </r>
       <r>    0.1811    0.0000 </r>
       <r>    0.2085    0.0000 </r>
       <r>    0.2094    0.0000 </r>
       <r>    0.2629    0.0000 </r>
       <r>    0.2644    0.0000 </r>
       <r>    0.2665    0.0000 </r>
       <r>    0.2675    0.0000 </r>
       <r>    0.3151    0.0000 </r>
       <r>    0.3348    0.0000 </r>
      </set>
      <set comment="kpoint 9">
       <r>  -25.2695    1.0000 </r>
       <r>  -25.2694    1.0000 </r>
       <r>  -25.2685    1.0000 </r>
       <r>  -25.2679    1.0000 </r>
       <r>  -25.2677    1.0000 </r>
       <r>  -25.2675    1.0000 </r>
       <r>  -25.2673    1.0000 </r>
       <r>  -25.2667    1.0000 </r>
       <r>  -25.2666    1.0000 </r>
       <r>  -25.2664    1.0000 </r>
       <r>  -25.2663    1.0000 </r>
       <r>  -25.2663    1.0000 </r>
       <r>  -25.2662    1.0000 </r>
       <r>  -25.2661    1.0000 </r>
       <r>  -25.2661    1.0000 </r>
       <r>  -25.2651    1.0000 </r>
       <r>  -25.2648    1.0000 </r>
       <r>  -25.2647    1.0000 </r>
       <r>  -25.2643    1.0000 </r>
       <r>  -25.2638    1.0000 </r>
       <r>  -25.2638    1.0000 </r>
       <r>  -25.2636    1.0000 </r>
       <r>  -25.2636    1.0000 </r>
       <r>  -25.2633    1.0000 </r>
       <r>  -25.2621    1.0000 </r>
       <r>  -25.2617    1.0000 </r>
       <r>  -25.2601    1.0000 </r>
       <r>  -25.2601    1.0000 </r>
       <r>  -25.2563    1.0000 </r>
       <r>  -25.2562    1.0000 </r>
       <r>  -25.2545    1.0000 </r>
       <r>  -25.2528    1.0000 </r>
       <r>  -25.2527    1.0000 </r>
       <r>  -25.2518    1.0000 </r>
       <r>  -25.2516    1.0000 </r>
       <r>  -25.2514    1.0000 </r>
       <r>  -25.2508    1.0000 </r>
       <r>  -25.2505    1.0000 </r>
       <r>  -25.2504    1.0000 </r>
       <r>  -25.2502    1.0000 </r>
       <r>  -25.2502    1.0000 </r>
       <r>  -25.2496    1.0000 </r>
       <r>  -25.2495    1.0000 </r>
       <r>  -25.2485    1.0000 </r>
       <r>  -25.2484    1.0000 </r>
       <r>  -25.2481    1.0000 </r>
       <r>  -25.2480    1.0000 </r>
       <r>  -25.2467    1.0000 </r>
       <r>  -25.2460    1.0000 </r>
       <r>  -25.2459    1.0000 </r>
       <r>  -25.2325    1.0000 </r>
       <r>  -25.2323    1.0000 </r>
       <r>  -25.2318    1.0000 </r>
       <r>  -25.2312    1.0000 </r>
       <r>  -25.2311    1.0000 </r>
       <r>  -25.2308    1.0000 </r>
       <r>  -25.2306    1.0000 </r>
       <r>  -25.2302    1.0000 </r>
       <r>  -25.2302    1.0000 </r>
       <r>  -25.2298    1.0000 </r>
       <r>  -25.2297    1.0000 </r>
       <r>  -25.2295    1.0000 </r>
       <r>  -25.2295    1.0000 </r>
       <r>  -25.2294    1.0000 </r>
       <r>  -25.2290    1.0000 </r>
       <r>  -25.2289    1.0000 </r>
       <r>  -25.2284    1.0000 </r>
       <r>  -25.2283    1.0000 </r>
       <r>  -25.2282    1.0000 </r>
       <r>  -25.2275    1.0000 </r>
       <r>  -25.2271    1.0000 </r>
       <r>  -25.2266    1.0000 </r>
       <r>  -25.2263    1.0000 </r>
       <r>  -25.2259    1.0000 </r>
       <r>  -25.2258    1.0000 </r>
       <r>  -25.2253    1.0000 </r>
       <r>  -25.2247    1.0000 </r>
       <r>  -25.2246    1.0000 </r>
       <r>  -25.2242    1.0000 </r>
       <r>  -25.2241    1.0000 </r>
       <r>  -25.2241    1.0000 </r>
       <r>  -25.2240    1.0000 </r>
       <r>  -25.2239    1.0000 </r>
       <r>  -25.2237    1.0000 </r>
       <r>  -25.2236    1.0000 </r>
       <r>  -25.2236    1.0000 </r>
       <r>  -25.2235    1.0000 </r>
       <r>  -25.2234    1.0000 </r>
       <r>  -25.2234    1.0000 </r>
       <r>  -25.2232    1.0000 </r>
       <r>  -25.2232    1.0000 </r>
       <r>  -25.2232    1.0000 </r>
       <r>  -25.2231    1.0000 </r>
       <r>  -25.2231    1.0000 </r>
       <r>  -25.2231    1.0000 </r>
       <r>  -25.2230    1.0000 </r>
       <r>  -25.2230    1.0000 </r>
       <r>  -25.2227    1.0000 </r>
       <r>  -25.2227    1.0000 </r>
       <r>  -25.2225    1.0000 </r>
       <r>  -25.2127    1.0000 </r>
       <r>  -25.2116    1.0000 </r>
       <r>  -25.2113    1.0000 </r>
       <r>  -25.2091    1.0000 </r>
       <r>  -25.2087    1.0000 </r>
       <r>  -25.2074    1.0000 </r>
       <r>  -25.2067    1.0000 </r>
       <r>  -25.2065    1.0000 </r>
       <r>  -25.2056    1.0000 </r>
       <r>  -25.2053    1.0000 </r>
       <r>  -25.2049    1.0000 </r>
       <r>  -25.2048    1.0000 </r>
       <r>  -25.2035    1.0000 </r>
       <r>  -25.2029    1.0000 </r>
       <r>  -25.2027    1.0000 </r>
       <r>  -25.2026    1.0000 </r>
       <r>  -25.2023    1.0000 </r>
       <r>  -25.2022    1.0000 </r>
       <r>  -25.2020    1.0000 </r>
       <r>  -25.2019    1.0000 </r>
       <r>  -25.2017    1.0000 </r>
       <r>  -25.2016    1.0000 </r>
       <r>  -25.2016    1.0000 </r>
       <r>  -25.2015    1.0000 </r>
       <r>  -25.2014    1.0000 </r>
       <r>  -14.5420    1.0000 </r>
       <r>  -14.4542    1.0000 </r>
       <r>  -14.4530    1.0000 </r>
       <r>  -14.1979    1.0000 </r>
       <r>  -14.1966    1.0000 </r>
       <r>  -14.0344    1.0000 </r>
       <r>  -13.9583    1.0000 </r>
       <r>  -13.9573    1.0000 </r>
       <r>  -13.8074    1.0000 </r>
       <r>  -13.8061    1.0000 </r>
       <r>  -13.7394    1.0000 </r>
       <r>  -13.7384    1.0000 </r>
       <r>  -13.4164    1.0000 </r>
       <r>  -13.4154    1.0000 </r>
       <r>  -13.3781    1.0000 </r>
       <r>  -13.3769    1.0000 </r>
       <r>  -13.2441    1.0000 </r>
       <r>  -13.2311    1.0000 </r>
       <r>  -13.2306    1.0000 </r>
       <r>  -13.2091    1.0000 </r>
       <r>  -13.2087    1.0000 </r>
       <r>  -13.1572    1.0000 </r>
       <r>  -13.0800    1.0000 </r>
       <r>  -13.0793    1.0000 </r>
       <r>  -12.9176    1.0000 </r>
       <r>  -11.1661    1.0000 </r>
       <r>  -11.0211    1.0000 </r>
       <r>  -11.0206    1.0000 </r>
       <r>  -11.0104    1.0000 </r>
       <r>  -10.9760    1.0000 </r>
       <r>  -10.9754    1.0000 </r>
       <r>  -10.9089    1.0000 </r>
       <r>  -10.9082    1.0000 </r>
       <r>  -10.8666    1.0000 </r>
       <r>  -10.7828    1.0000 </r>
       <r>  -10.7821    1.0000 </r>
       <r>  -10.7245    1.0000 </r>
       <r>  -10.7240    1.0000 </r>
       <r>  -10.4444    1.0000 </r>
       <r>  -10.4439    1.0000 </r>
       <r>  -10.3763    1.0000 </r>
       <r>  -10.3753    1.0000 </r>
       <r>  -10.2590    1.0000 </r>
       <r>  -10.2585    1.0000 </r>
       <r>  -10.1955    1.0000 </r>
       <r>  -10.0945    1.0000 </r>
       <r>  -10.0933    1.0000 </r>
       <r>   -9.9779    1.0000 </r>
       <r>   -9.9766    1.0000 </r>
       <r>   -9.9512    1.0000 </r>
       <r>   -6.0467    1.0000 </r>
       <r>   -5.8505    1.0000 </r>
       <r>   -5.8493    1.0000 </r>
       <r>   -5.7683    1.0000 </r>
       <r>   -5.7665    1.0000 </r>
       <r>   -5.7662    1.0000 </r>
       <r>   -5.7307    1.0000 </r>
       <r>   -5.7303    1.0000 </r>
       <r>   -5.7201    1.0000 </r>
       <r>   -5.7193    1.0000 </r>
       <r>   -5.6436    1.0000 </r>
       <r>   -5.6225    1.0000 </r>
       <r>   -5.6215    1.0000 </r>
       <r>   -5.6157    1.0000 </r>
       <r>   -5.6149    1.0000 </r>
       <r>   -5.4783    1.0000 </r>
       <r>   -5.4774    1.0000 </r>
       <r>   -5.3996    1.0000 </r>
       <r>   -5.3987    1.0000 </r>
       <r>   -5.2310    1.0000 </r>
       <r>   -5.1467    1.0000 </r>
       <r>   -5.0675    1.0000 </r>
       <r>   -5.0671    1.0000 </r>
       <r>   -4.9501    1.0000 </r>
       <r>   -4.9493    1.0000 </r>
       <r>   -4.9131    1.0000 </r>
       <r>   -4.9121    1.0000 </r>
       <r>   -4.9024    1.0000 </r>
       <r>   -4.9021    1.0000 </r>
       <r>   -4.7772    1.0000 </r>
       <r>   -4.6482    1.0000 </r>
       <r>   -4.6467    1.0000 </r>
       <r>   -4.5857    1.0000 </r>
       <r>   -4.5258    1.0000 </r>
       <r>   -4.4325    1.0000 </r>
       <r>   -4.4309    1.0000 </r>
       <r>   -4.3913    1.0000 </r>
       <r>   -4.3909    1.0000 </r>
       <r>   -4.3178    1.0000 </r>
       <r>   -4.3172    1.0000 </r>
       <r>   -4.2839    1.0000 </r>
       <r>   -4.2835    1.0000 </r>
       <r>   -4.1990    1.0000 </r>
       <r>   -4.1987    1.0000 </r>
       <r>   -4.1804    1.0000 </r>
       <r>   -4.1797    1.0000 </r>
       <r>   -4.1326    1.0000 </r>
       <r>   -4.1315    1.0000 </r>
       <r>   -4.1025    1.0000 </r>
       <r>   -4.1021    1.0000 </r>
       <r>   -3.9952    1.0000 </r>
       <r>   -3.9950    1.0000 </r>
       <r>   -3.9848    1.0000 </r>
       <r>   -3.9839    1.0000 </r>
       <r>   -3.9831    1.0000 </r>
       <r>   -3.9130    1.0000 </r>
       <r>   -3.9113    1.0000 </r>
       <r>   -3.8633    1.0000 </r>
       <r>   -3.8630    1.0000 </r>
       <r>   -3.6842    1.0000 </r>
       <r>   -3.6837    1.0000 </r>
       <r>   -3.6104    1.0000 </r>
       <r>   -3.5467    1.0000 </r>
       <r>   -3.5458    1.0000 </r>
       <r>   -3.5004    1.0000 </r>
       <r>   -3.4993    1.0000 </r>
       <r>   -3.4110    1.0000 </r>
       <r>   -3.3984    1.0000 </r>
       <r>   -3.3970    1.0000 </r>
       <r>   -3.3892    1.0000 </r>
       <r>   -3.3556    1.0000 </r>
       <r>   -3.3546    1.0000 </r>
       <r>   -3.2419    1.0000 </r>
       <r>   -3.2408    1.0000 </r>
       <r>   -3.0335    1.0000 </r>
       <r>   -1.5720    0.0000 </r>
       <r>   -1.5707    0.0000 </r>
       <r>   -1.5659    0.0000 </r>
       <r>   -1.5647    0.0000 </r>
       <r>   -1.2991    0.0000 </r>
       <r>   -1.2789    0.0000 </r>
       <r>   -1.2788    0.0000 </r>
       <r>   -1.2604    0.0000 </r>
       <r>   -1.1947    0.0000 </r>
       <r>   -1.1938    0.0000 </r>
       <r>   -1.1159    0.0000 </r>
       <r>   -1.1156    0.0000 </r>
       <r>   -1.0702    0.0000 </r>
       <r>   -1.0686    0.0000 </r>
       <r>   -1.0631    0.0000 </r>
       <r>   -1.0625    0.0000 </r>
       <r>   -1.0483    0.0000 </r>
       <r>   -1.0481    0.0000 </r>
       <r>   -0.9306    0.0000 </r>
       <r>   -0.9109    0.0000 </r>
       <r>   -0.9094    0.0000 </r>
       <r>   -0.8829    0.0000 </r>
       <r>   -0.8356    0.0000 </r>
       <r>   -0.8351    0.0000 </r>
       <r>   -0.8105    0.0000 </r>
       <r>   -0.5744    0.0000 </r>
       <r>   -0.4707    0.0000 </r>
       <r>   -0.4697    0.0000 </r>
       <r>   -0.4541    0.0000 </r>
       <r>   -0.4536    0.0000 </r>
       <r>   -0.4177    0.0000 </r>
       <r>   -0.3293    0.0000 </r>
       <r>   -0.3109    0.0000 </r>
       <r>   -0.3098    0.0000 </r>
       <r>   -0.2820    0.0000 </r>
       <r>   -0.2802    0.0000 </r>
       <r>   -0.2797    0.0000 </r>
       <r>   -0.2243    0.0000 </r>
       <r>   -0.2237    0.0000 </r>
       <r>   -0.1812    0.0000 </r>
       <r>   -0.1802    0.0000 </r>
       <r>   -0.0269    0.0000 </r>
       <r>   -0.0265    0.0000 </r>
       <r>   -0.0160    0.0000 </r>
       <r>    0.0842    0.0000 </r>
       <r>    0.0858    0.0000 </r>
       <r>    0.1223    0.0000 </r>
       <r>    0.1236    0.0000 </r>
       <r>    0.1801    0.0000 </r>
       <r>    0.1811    0.0000 </r>
       <r>    0.2090    0.0000 </r>
       <r>    0.2097    0.0000 </r>
       <r>    0.2638    0.0000 </r>
       <r>    0.2643    0.0000 </r>
       <r>    0.2667    0.0000 </r>
       <r>    0.2691    0.0000 </r>
       <r>    0.3142    0.0000 </r>
       <r>    0.3365    0.0000 </r>
      </set>
      <set comment="kpoint 10">
       <r>  -25.2695    1.0000 </r>
       <r>  -25.2693    1.0000 </r>
       <r>  -25.2685    1.0000 </r>
       <r>  -25.2679    1.0000 </r>
       <r>  -25.2676    1.0000 </r>
       <r>  -25.2675    1.0000 </r>
       <r>  -25.2673    1.0000 </r>
       <r>  -25.2668    1.0000 </r>
       <r>  -25.2666    1.0000 </r>
       <r>  -25.2664    1.0000 </r>
       <r>  -25.2663    1.0000 </r>
       <r>  -25.2662    1.0000 </r>
       <r>  -25.2662    1.0000 </r>
       <r>  -25.2661    1.0000 </r>
       <r>  -25.2661    1.0000 </r>
       <r>  -25.2651    1.0000 </r>
       <r>  -25.2648    1.0000 </r>
       <r>  -25.2647    1.0000 </r>
       <r>  -25.2643    1.0000 </r>
       <r>  -25.2639    1.0000 </r>
       <r>  -25.2638    1.0000 </r>
       <r>  -25.2636    1.0000 </r>
       <r>  -25.2636    1.0000 </r>
       <r>  -25.2633    1.0000 </r>
       <r>  -25.2621    1.0000 </r>
       <r>  -25.2617    1.0000 </r>
       <r>  -25.2601    1.0000 </r>
       <r>  -25.2600    1.0000 </r>
       <r>  -25.2564    1.0000 </r>
       <r>  -25.2562    1.0000 </r>
       <r>  -25.2545    1.0000 </r>
       <r>  -25.2528    1.0000 </r>
       <r>  -25.2526    1.0000 </r>
       <r>  -25.2518    1.0000 </r>
       <r>  -25.2516    1.0000 </r>
       <r>  -25.2514    1.0000 </r>
       <r>  -25.2508    1.0000 </r>
       <r>  -25.2505    1.0000 </r>
       <r>  -25.2504    1.0000 </r>
       <r>  -25.2502    1.0000 </r>
       <r>  -25.2502    1.0000 </r>
       <r>  -25.2496    1.0000 </r>
       <r>  -25.2495    1.0000 </r>
       <r>  -25.2485    1.0000 </r>
       <r>  -25.2484    1.0000 </r>
       <r>  -25.2481    1.0000 </r>
       <r>  -25.2479    1.0000 </r>
       <r>  -25.2467    1.0000 </r>
       <r>  -25.2460    1.0000 </r>
       <r>  -25.2459    1.0000 </r>
       <r>  -25.2325    1.0000 </r>
       <r>  -25.2323    1.0000 </r>
       <r>  -25.2317    1.0000 </r>
       <r>  -25.2312    1.0000 </r>
       <r>  -25.2311    1.0000 </r>
       <r>  -25.2308    1.0000 </r>
       <r>  -25.2306    1.0000 </r>
       <r>  -25.2303    1.0000 </r>
       <r>  -25.2302    1.0000 </r>
       <r>  -25.2298    1.0000 </r>
       <r>  -25.2297    1.0000 </r>
       <r>  -25.2295    1.0000 </r>
       <r>  -25.2295    1.0000 </r>
       <r>  -25.2294    1.0000 </r>
       <r>  -25.2290    1.0000 </r>
       <r>  -25.2288    1.0000 </r>
       <r>  -25.2284    1.0000 </r>
       <r>  -25.2284    1.0000 </r>
       <r>  -25.2282    1.0000 </r>
       <r>  -25.2275    1.0000 </r>
       <r>  -25.2272    1.0000 </r>
       <r>  -25.2266    1.0000 </r>
       <r>  -25.2263    1.0000 </r>
       <r>  -25.2259    1.0000 </r>
       <r>  -25.2258    1.0000 </r>
       <r>  -25.2253    1.0000 </r>
       <r>  -25.2248    1.0000 </r>
       <r>  -25.2246    1.0000 </r>
       <r>  -25.2243    1.0000 </r>
       <r>  -25.2242    1.0000 </r>
       <r>  -25.2241    1.0000 </r>
       <r>  -25.2241    1.0000 </r>
       <r>  -25.2239    1.0000 </r>
       <r>  -25.2236    1.0000 </r>
       <r>  -25.2236    1.0000 </r>
       <r>  -25.2235    1.0000 </r>
       <r>  -25.2235    1.0000 </r>
       <r>  -25.2234    1.0000 </r>
       <r>  -25.2234    1.0000 </r>
       <r>  -25.2233    1.0000 </r>
       <r>  -25.2232    1.0000 </r>
       <r>  -25.2232    1.0000 </r>
       <r>  -25.2231    1.0000 </r>
       <r>  -25.2231    1.0000 </r>
       <r>  -25.2231    1.0000 </r>
       <r>  -25.2230    1.0000 </r>
       <r>  -25.2230    1.0000 </r>
       <r>  -25.2227    1.0000 </r>
       <r>  -25.2227    1.0000 </r>
       <r>  -25.2225    1.0000 </r>
       <r>  -25.2127    1.0000 </r>
       <r>  -25.2117    1.0000 </r>
       <r>  -25.2113    1.0000 </r>
       <r>  -25.2091    1.0000 </r>
       <r>  -25.2086    1.0000 </r>
       <r>  -25.2075    1.0000 </r>
       <r>  -25.2067    1.0000 </r>
       <r>  -25.2064    1.0000 </r>
       <r>  -25.2057    1.0000 </r>
       <r>  -25.2053    1.0000 </r>
       <r>  -25.2049    1.0000 </r>
       <r>  -25.2047    1.0000 </r>
       <r>  -25.2035    1.0000 </r>
       <r>  -25.2029    1.0000 </r>
       <r>  -25.2027    1.0000 </r>
       <r>  -25.2026    1.0000 </r>
       <r>  -25.2024    1.0000 </r>
       <r>  -25.2022    1.0000 </r>
       <r>  -25.2020    1.0000 </r>
       <r>  -25.2019    1.0000 </r>
       <r>  -25.2018    1.0000 </r>
       <r>  -25.2016    1.0000 </r>
       <r>  -25.2016    1.0000 </r>
       <r>  -25.2015    1.0000 </r>
       <r>  -25.2014    1.0000 </r>
       <r>  -14.5419    1.0000 </r>
       <r>  -14.4541    1.0000 </r>
       <r>  -14.4531    1.0000 </r>
       <r>  -14.1977    1.0000 </r>
       <r>  -14.1968    1.0000 </r>
       <r>  -14.0343    1.0000 </r>
       <r>  -13.9582    1.0000 </r>
       <r>  -13.9574    1.0000 </r>
       <r>  -13.8072    1.0000 </r>
       <r>  -13.8064    1.0000 </r>
       <r>  -13.7393    1.0000 </r>
       <r>  -13.7384    1.0000 </r>
       <r>  -13.4162    1.0000 </r>
       <r>  -13.4155    1.0000 </r>
       <r>  -13.3780    1.0000 </r>
       <r>  -13.3773    1.0000 </r>
       <r>  -13.2440    1.0000 </r>
       <r>  -13.2311    1.0000 </r>
       <r>  -13.2304    1.0000 </r>
       <r>  -13.2091    1.0000 </r>
       <r>  -13.2084    1.0000 </r>
       <r>  -13.1574    1.0000 </r>
       <r>  -13.0800    1.0000 </r>
       <r>  -13.0794    1.0000 </r>
       <r>  -12.9177    1.0000 </r>
       <r>  -11.1660    1.0000 </r>
       <r>  -11.0212    1.0000 </r>
       <r>  -11.0205    1.0000 </r>
       <r>  -11.0100    1.0000 </r>
       <r>  -10.9764    1.0000 </r>
       <r>  -10.9754    1.0000 </r>
       <r>  -10.9090    1.0000 </r>
       <r>  -10.9084    1.0000 </r>
       <r>  -10.8668    1.0000 </r>
       <r>  -10.7825    1.0000 </r>
       <r>  -10.7819    1.0000 </r>
       <r>  -10.7247    1.0000 </r>
       <r>  -10.7239    1.0000 </r>
       <r>  -10.4447    1.0000 </r>
       <r>  -10.4438    1.0000 </r>
       <r>  -10.3761    1.0000 </r>
       <r>  -10.3752    1.0000 </r>
       <r>  -10.2593    1.0000 </r>
       <r>  -10.2584    1.0000 </r>
       <r>  -10.1956    1.0000 </r>
       <r>  -10.0944    1.0000 </r>
       <r>  -10.0932    1.0000 </r>
       <r>   -9.9780    1.0000 </r>
       <r>   -9.9766    1.0000 </r>
       <r>   -9.9512    1.0000 </r>
       <r>   -6.0468    1.0000 </r>
       <r>   -5.8505    1.0000 </r>
       <r>   -5.8495    1.0000 </r>
       <r>   -5.7685    1.0000 </r>
       <r>   -5.7665    1.0000 </r>
       <r>   -5.7661    1.0000 </r>
       <r>   -5.7307    1.0000 </r>
       <r>   -5.7301    1.0000 </r>
       <r>   -5.7199    1.0000 </r>
       <r>   -5.7197    1.0000 </r>
       <r>   -5.6434    1.0000 </r>
       <r>   -5.6223    1.0000 </r>
       <r>   -5.6217    1.0000 </r>
       <r>   -5.6155    1.0000 </r>
       <r>   -5.6151    1.0000 </r>
       <r>   -5.4779    1.0000 </r>
       <r>   -5.4776    1.0000 </r>
       <r>   -5.3995    1.0000 </r>
       <r>   -5.3990    1.0000 </r>
       <r>   -5.2311    1.0000 </r>
       <r>   -5.1469    1.0000 </r>
       <r>   -5.0673    1.0000 </r>
       <r>   -5.0672    1.0000 </r>
       <r>   -4.9498    1.0000 </r>
       <r>   -4.9494    1.0000 </r>
       <r>   -4.9127    1.0000 </r>
       <r>   -4.9122    1.0000 </r>
       <r>   -4.9024    1.0000 </r>
       <r>   -4.9021    1.0000 </r>
       <r>   -4.7773    1.0000 </r>
       <r>   -4.6480    1.0000 </r>
       <r>   -4.6470    1.0000 </r>
       <r>   -4.5859    1.0000 </r>
       <r>   -4.5257    1.0000 </r>
       <r>   -4.4324    1.0000 </r>
       <r>   -4.4314    1.0000 </r>
       <r>   -4.3914    1.0000 </r>
       <r>   -4.3909    1.0000 </r>
       <r>   -4.3175    1.0000 </r>
       <r>   -4.3169    1.0000 </r>
       <r>   -4.2840    1.0000 </r>
       <r>   -4.2834    1.0000 </r>
       <r>   -4.1990    1.0000 </r>
       <r>   -4.1987    1.0000 </r>
       <r>   -4.1802    1.0000 </r>
       <r>   -4.1797    1.0000 </r>
       <r>   -4.1324    1.0000 </r>
       <r>   -4.1316    1.0000 </r>
       <r>   -4.1027    1.0000 </r>
       <r>   -4.1021    1.0000 </r>
       <r>   -3.9953    1.0000 </r>
       <r>   -3.9947    1.0000 </r>
       <r>   -3.9845    1.0000 </r>
       <r>   -3.9839    1.0000 </r>
       <r>   -3.9831    1.0000 </r>
       <r>   -3.9128    1.0000 </r>
       <r>   -3.9118    1.0000 </r>
       <r>   -3.8635    1.0000 </r>
       <r>   -3.8630    1.0000 </r>
       <r>   -3.6844    1.0000 </r>
       <r>   -3.6838    1.0000 </r>
       <r>   -3.6108    1.0000 </r>
       <r>   -3.5467    1.0000 </r>
       <r>   -3.5458    1.0000 </r>
       <r>   -3.5003    1.0000 </r>
       <r>   -3.4993    1.0000 </r>
       <r>   -3.4110    1.0000 </r>
       <r>   -3.3983    1.0000 </r>
       <r>   -3.3970    1.0000 </r>
       <r>   -3.3892    1.0000 </r>
       <r>   -3.3556    1.0000 </r>
       <r>   -3.3546    1.0000 </r>
       <r>   -3.2420    1.0000 </r>
       <r>   -3.2410    1.0000 </r>
       <r>   -3.0331    1.0000 </r>
       <r>   -1.5717    0.0000 </r>
       <r>   -1.5709    0.0000 </r>
       <r>   -1.5655    0.0000 </r>
       <r>   -1.5648    0.0000 </r>
       <r>   -1.2992    0.0000 </r>
       <r>   -1.2793    0.0000 </r>
       <r>   -1.2788    0.0000 </r>
       <r>   -1.2606    0.0000 </r>
       <r>   -1.1944    0.0000 </r>
       <r>   -1.1940    0.0000 </r>
       <r>   -1.1162    0.0000 </r>
       <r>   -1.1157    0.0000 </r>
       <r>   -1.0702    0.0000 </r>
       <r>   -1.0686    0.0000 </r>
       <r>   -1.0628    0.0000 </r>
       <r>   -1.0626    0.0000 </r>
       <r>   -1.0485    0.0000 </r>
       <r>   -1.0481    0.0000 </r>
       <r>   -0.9304    0.0000 </r>
       <r>   -0.9105    0.0000 </r>
       <r>   -0.9094    0.0000 </r>
       <r>   -0.8828    0.0000 </r>
       <r>   -0.8358    0.0000 </r>
       <r>   -0.8350    0.0000 </r>
       <r>   -0.8105    0.0000 </r>
       <r>   -0.5747    0.0000 </r>
       <r>   -0.4704    0.0000 </r>
       <r>   -0.4695    0.0000 </r>
       <r>   -0.4542    0.0000 </r>
       <r>   -0.4537    0.0000 </r>
       <r>   -0.4173    0.0000 </r>
       <r>   -0.3297    0.0000 </r>
       <r>   -0.3107    0.0000 </r>
       <r>   -0.3097    0.0000 </r>
       <r>   -0.2814    0.0000 </r>
       <r>   -0.2798    0.0000 </r>
       <r>   -0.2797    0.0000 </r>
       <r>   -0.2249    0.0000 </r>
       <r>   -0.2237    0.0000 </r>
       <r>   -0.1817    0.0000 </r>
       <r>   -0.1802    0.0000 </r>
       <r>   -0.0274    0.0000 </r>
       <r>   -0.0263    0.0000 </r>
       <r>   -0.0163    0.0000 </r>
       <r>    0.0844    0.0000 </r>
       <r>    0.0858    0.0000 </r>
       <r>    0.1227    0.0000 </r>
       <r>    0.1235    0.0000 </r>
       <r>    0.1802    0.0000 </r>
       <r>    0.1810    0.0000 </r>
       <r>    0.2088    0.0000 </r>
       <r>    0.2096    0.0000 </r>
       <r>    0.2640    0.0000 </r>
       <r>    0.2647    0.0000 </r>
       <r>    0.2676    0.0000 </r>
       <r>    0.2700    0.0000 </r>
       <r>    0.3229    0.0000 </r>
       <r>    0.3332    0.0000 </r>
      </set>
     </set>
    </set>
   </array>
  </eigenvalues>
  <separator name="orbital magnetization" >
   <v name="MAGDIPOLOUT">      0.00000000      0.00000000      0.00000000</v>
  </separator>
  <dos>
   <i name="efermi">     -2.55778837 </i>
   <total>
    <array>
     <dimension dim="1">gridpoints</dimension>
     <dimension dim="2">spin</dimension>
     <field>energy</field>
     <field>total</field>
     <field>integrated</field>
     <set>
      <set comment="spin 1">
       <r>   -26.5526     0.0000     0.0000 </r>
       <r>   -26.4586     0.0000     0.0000 </r>
       <r>   -26.3645     0.0000     0.0000 </r>
       <r>   -26.2704     0.0000     0.0000 </r>
       <r>   -26.1763     0.0000     0.0000 </r>
       <r>   -26.0823     0.0000     0.0000 </r>
       <r>   -25.9882     0.0000     0.0000 </r>
       <r>   -25.8941     0.0000     0.0000 </r>
       <r>   -25.8001     0.0000     0.0000 </r>
       <r>   -25.7060     0.0000     0.0000 </r>
       <r>   -25.6119     0.0000     0.0000 </r>
       <r>   -25.5178     0.0000     0.0000 </r>
       <r>   -25.4238     0.0026     0.0002 </r>
       <r>   -25.3297    28.6778     2.6981 </r>
       <r>   -25.2356  1282.4704   123.3458 </r>
       <r>   -25.1415  1316.9765   247.2396 </r>
       <r>   -25.0475    29.3404   249.9997 </r>
       <r>   -24.9534     0.0027   250.0000 </r>
       <r>   -24.8593     0.0000   250.0000 </r>
       <r>   -24.7652     0.0000   250.0000 </r>
       <r>   -24.6712     0.0000   250.0000 </r>
       <r>   -24.5771     0.0000   250.0000 </r>
       <r>   -24.4830     0.0000   250.0000 </r>
       <r>   -24.3889     0.0000   250.0000 </r>
       <r>   -24.2949     0.0000   250.0000 </r>
       <r>   -24.2008     0.0000   250.0000 </r>
       <r>   -24.1067     0.0000   250.0000 </r>
       <r>   -24.0126     0.0000   250.0000 </r>
       <r>   -23.9186     0.0000   250.0000 </r>
       <r>   -23.8245     0.0000   250.0000 </r>
       <r>   -23.7304     0.0000   250.0000 </r>
       <r>   -23.6363     0.0000   250.0000 </r>
       <r>   -23.5423     0.0000   250.0000 </r>
       <r>   -23.4482     0.0000   250.0000 </r>
       <r>   -23.3541     0.0000   250.0000 </r>
       <r>   -23.2600     0.0000   250.0000 </r>
       <r>   -23.1660     0.0000   250.0000 </r>
       <r>   -23.0719     0.0000   250.0000 </r>
       <r>   -22.9778     0.0000   250.0000 </r>
       <r>   -22.8837     0.0000   250.0000 </r>
       <r>   -22.7897     0.0000   250.0000 </r>
       <r>   -22.6956     0.0000   250.0000 </r>
       <r>   -22.6015     0.0000   250.0000 </r>
       <r>   -22.5074     0.0000   250.0000 </r>
       <r>   -22.4134     0.0000   250.0000 </r>
       <r>   -22.3193     0.0000   250.0000 </r>
       <r>   -22.2252     0.0000   250.0000 </r>
       <r>   -22.1311     0.0000   250.0000 </r>
       <r>   -22.0371     0.0000   250.0000 </r>
       <r>   -21.9430     0.0000   250.0000 </r>
       <r>   -21.8489     0.0000   250.0000 </r>
       <r>   -21.7549     0.0000   250.0000 </r>
       <r>   -21.6608     0.0000   250.0000 </r>
       <r>   -21.5667     0.0000   250.0000 </r>
       <r>   -21.4726     0.0000   250.0000 </r>
       <r>   -21.3786     0.0000   250.0000 </r>
       <r>   -21.2845     0.0000   250.0000 </r>
       <r>   -21.1904     0.0000   250.0000 </r>
       <r>   -21.0963     0.0000   250.0000 </r>
       <r>   -21.0023     0.0000   250.0000 </r>
       <r>   -20.9082     0.0000   250.0000 </r>
       <r>   -20.8141     0.0000   250.0000 </r>
       <r>   -20.7200     0.0000   250.0000 </r>
       <r>   -20.6260     0.0000   250.0000 </r>
       <r>   -20.5319     0.0000   250.0000 </r>
       <r>   -20.4378     0.0000   250.0000 </r>
       <r>   -20.3437     0.0000   250.0000 </r>
       <r>   -20.2497     0.0000   250.0000 </r>
       <r>   -20.1556     0.0000   250.0000 </r>
       <r>   -20.0615     0.0000   250.0000 </r>
       <r>   -19.9674     0.0000   250.0000 </r>
       <r>   -19.8734     0.0000   250.0000 </r>
       <r>   -19.7793     0.0000   250.0000 </r>
       <r>   -19.6852     0.0000   250.0000 </r>
       <r>   -19.5911     0.0000   250.0000 </r>
       <r>   -19.4971     0.0000   250.0000 </r>
       <r>   -19.4030     0.0000   250.0000 </r>
       <r>   -19.3089     0.0000   250.0000 </r>
       <r>   -19.2148     0.0000   250.0000 </r>
       <r>   -19.1208     0.0000   250.0000 </r>
       <r>   -19.0267     0.0000   250.0000 </r>
       <r>   -18.9326     0.0000   250.0000 </r>
       <r>   -18.8385     0.0000   250.0000 </r>
       <r>   -18.7445     0.0000   250.0000 </r>
       <r>   -18.6504     0.0000   250.0000 </r>
       <r>   -18.5563     0.0000   250.0000 </r>
       <r>   -18.4622     0.0000   250.0000 </r>
       <r>   -18.3682     0.0000   250.0000 </r>
       <r>   -18.2741     0.0000   250.0000 </r>
       <r>   -18.1800     0.0000   250.0000 </r>
       <r>   -18.0859     0.0000   250.0000 </r>
       <r>   -17.9919     0.0000   250.0000 </r>
       <r>   -17.8978     0.0000   250.0000 </r>
       <r>   -17.8037     0.0000   250.0000 </r>
       <r>   -17.7097     0.0000   250.0000 </r>
       <r>   -17.6156     0.0000   250.0000 </r>
       <r>   -17.5215     0.0000   250.0000 </r>
       <r>   -17.4274     0.0000   250.0000 </r>
       <r>   -17.3334     0.0000   250.0000 </r>
       <r>   -17.2393     0.0000   250.0000 </r>
       <r>   -17.1452     0.0000   250.0000 </r>
       <r>   -17.0511     0.0000   250.0000 </r>
       <r>   -16.9571     0.0000   250.0000 </r>
       <r>   -16.8630     0.0000   250.0000 </r>
       <r>   -16.7689     0.0000   250.0000 </r>
       <r>   -16.6748     0.0000   250.0000 </r>
       <r>   -16.5808     0.0000   250.0000 </r>
       <r>   -16.4867     0.0000   250.0000 </r>
       <r>   -16.3926     0.0000   250.0000 </r>
       <r>   -16.2985     0.0000   250.0000 </r>
       <r>   -16.2045     0.0000   250.0000 </r>
       <r>   -16.1104     0.0000   250.0000 </r>
       <r>   -16.0163     0.0000   250.0000 </r>
       <r>   -15.9222     0.0000   250.0000 </r>
       <r>   -15.8282     0.0000   250.0000 </r>
       <r>   -15.7341     0.0000   250.0000 </r>
       <r>   -15.6400     0.0000   250.0000 </r>
       <r>   -15.5459     0.0000   250.0000 </r>
       <r>   -15.4519     0.0000   250.0000 </r>
       <r>   -15.3578     0.0000   250.0000 </r>
       <r>   -15.2637     0.0000   250.0000 </r>
       <r>   -15.1696     0.0000   250.0000 </r>
       <r>   -15.0756     0.0000   250.0000 </r>
       <r>   -14.9815     0.0000   250.0000 </r>
       <r>   -14.8874     0.0000   250.0000 </r>
       <r>   -14.7933     0.0000   250.0000 </r>
       <r>   -14.6993     0.0129   250.0012 </r>
       <r>   -14.6052     3.4559   250.3263 </r>
       <r>   -14.5111    17.7392   251.9951 </r>
       <r>   -14.4170    21.1496   253.9848 </r>
       <r>   -14.3230    21.0224   255.9624 </r>
       <r>   -14.2289    19.3894   257.7865 </r>
       <r>   -14.1348    25.6240   260.1971 </r>
       <r>   -14.0407    18.5118   261.9385 </r>
       <r>   -13.9467    27.4918   264.5248 </r>
       <r>   -13.8526    18.9697   266.3094 </r>
       <r>   -13.7585    30.3562   269.1651 </r>
       <r>   -13.6645    19.6179   271.0107 </r>
       <r>   -13.5704    35.9069   274.3886 </r>
       <r>   -13.4763    22.6906   276.5232 </r>
       <r>   -13.3822    41.8461   280.4598 </r>
       <r>   -13.2882    31.8882   283.4597 </r>
       <r>   -13.1941    66.1446   289.6822 </r>
       <r>   -13.1000    43.9479   293.8166 </r>
       <r>   -13.0059    36.4983   297.2501 </r>
       <r>   -12.9119    24.7322   299.5768 </r>
       <r>   -12.8178     4.4794   299.9982 </r>
       <r>   -12.7237     0.0190   300.0000 </r>
       <r>   -12.6296     0.0000   300.0000 </r>
       <r>   -12.5356     0.0000   300.0000 </r>
       <r>   -12.4415     0.0000   300.0000 </r>
       <r>   -12.3474     0.0000   300.0000 </r>
       <r>   -12.2533     0.0000   300.0000 </r>
       <r>   -12.1593     0.0000   300.0000 </r>
       <r>   -12.0652     0.0000   300.0000 </r>
       <r>   -11.9711     0.0000   300.0000 </r>
       <r>   -11.8770     0.0000   300.0000 </r>
       <r>   -11.7830     0.0000   300.0000 </r>
       <r>   -11.6889     0.0000   300.0000 </r>
       <r>   -11.5948     0.0000   300.0000 </r>
       <r>   -11.5007     0.0000   300.0000 </r>
       <r>   -11.4067     0.0000   300.0000 </r>
       <r>   -11.3126     0.0001   300.0000 </r>
       <r>   -11.2185     0.6110   300.0575 </r>
       <r>   -11.1244    17.8094   301.7329 </r>
       <r>   -11.0304    44.4519   305.9147 </r>
       <r>   -10.9363    66.8219   312.2009 </r>
       <r>   -10.8422    55.2610   317.3996 </r>
       <r>   -10.7481    32.8845   320.4932 </r>
       <r>   -10.6541    39.1184   324.1732 </r>
       <r>   -10.5600    25.8349   326.6036 </r>
       <r>   -10.4659    34.3472   329.8348 </r>
       <r>   -10.3718    26.2854   332.3076 </r>
       <r>   -10.2778    31.5509   335.2757 </r>
       <r>   -10.1837    32.7508   338.3567 </r>
       <r>   -10.0896    34.9138   341.6412 </r>
       <r>    -9.9955    45.7544   345.9456 </r>
       <r>    -9.9015    40.4300   349.7490 </r>
       <r>    -9.8074     2.6671   349.9999 </r>
       <r>    -9.7133     0.0011   350.0000 </r>
       <r>    -9.6192     0.0000   350.0000 </r>
       <r>    -9.5252     0.0000   350.0000 </r>
       <r>    -9.4311     0.0000   350.0000 </r>
       <r>    -9.3370     0.0000   350.0000 </r>
       <r>    -9.2430     0.0000   350.0000 </r>
       <r>    -9.1489     0.0000   350.0000 </r>
       <r>    -9.0548     0.0000   350.0000 </r>
       <r>    -8.9607     0.0000   350.0000 </r>
       <r>    -8.8667     0.0000   350.0000 </r>
       <r>    -8.7726     0.0000   350.0000 </r>
       <r>    -8.6785     0.0000   350.0000 </r>
       <r>    -8.5844     0.0000   350.0000 </r>
       <r>    -8.4904     0.0000   350.0000 </r>
       <r>    -8.3963     0.0000   350.0000 </r>
       <r>    -8.3022     0.0000   350.0000 </r>
       <r>    -8.2081     0.0000   350.0000 </r>
       <r>    -8.1141     0.0000   350.0000 </r>
       <r>    -8.0200     0.0000   350.0000 </r>
       <r>    -7.9259     0.0000   350.0000 </r>
       <r>    -7.8318     0.0000   350.0000 </r>
       <r>    -7.7378     0.0000   350.0000 </r>
       <r>    -7.6437     0.0000   350.0000 </r>
       <r>    -7.5496     0.0000   350.0000 </r>
       <r>    -7.4555     0.0000   350.0000 </r>
       <r>    -7.3615     0.0000   350.0000 </r>
       <r>    -7.2674     0.0000   350.0000 </r>
       <r>    -7.1733     0.0000   350.0000 </r>
       <r>    -7.0792     0.0000   350.0000 </r>
       <r>    -6.9852     0.0000   350.0000 </r>
       <r>    -6.8911     0.0000   350.0000 </r>
       <r>    -6.7970     0.0000   350.0000 </r>
       <r>    -6.7029     0.0000   350.0000 </r>
       <r>    -6.6089     0.0000   350.0000 </r>
       <r>    -6.5148     0.0000   350.0000 </r>
       <r>    -6.4207     0.0000   350.0000 </r>
       <r>    -6.3266     0.0000   350.0000 </r>
       <r>    -6.2326     0.0000   350.0000 </r>
       <r>    -6.1385     0.0379   350.0036 </r>
       <r>    -6.0444     4.9067   350.4652 </r>
       <r>    -5.9503    19.7654   352.3246 </r>
       <r>    -5.8563    23.0824   354.4960 </r>
       <r>    -5.7622    83.4672   362.3482 </r>
       <r>    -5.6681   100.8977   371.8401 </r>
       <r>    -5.5740    55.8887   377.0978 </r>
       <r>    -5.4800    31.9523   380.1037 </r>
       <r>    -5.3859    39.9486   383.8618 </r>
       <r>    -5.2918    27.6369   386.4617 </r>
       <r>    -5.1978    40.9895   390.3178 </r>
       <r>    -5.1037    31.0658   393.2403 </r>
       <r>    -5.0096    39.8672   396.9908 </r>
       <r>    -4.9155    52.6313   401.9420 </r>
       <r>    -4.8215    68.5027   408.3864 </r>
       <r>    -4.7274    20.9595   410.3581 </r>
       <r>    -4.6333    40.1007   414.1306 </r>
       <r>    -4.5392    51.2489   418.9518 </r>
       <r>    -4.4452    21.3268   420.9581 </r>
       <r>    -4.3511    70.7836   427.6170 </r>
       <r>    -4.2570    88.1239   435.9072 </r>
       <r>    -4.1629    87.9651   444.1825 </r>
       <r>    -4.0689    62.3112   450.0444 </r>
       <r>    -3.9748    50.1345   454.7608 </r>
       <r>    -3.8807    53.9216   459.8334 </r>
       <r>    -3.7866    43.8774   463.9612 </r>
       <r>    -3.6926    49.7249   468.6390 </r>
       <r>    -3.5985    46.2382   472.9888 </r>
       <r>    -3.5044    54.7376   478.1382 </r>
       <r>    -3.4103    77.8715   485.4640 </r>
       <r>    -3.3163    89.9178   493.9229 </r>
       <r>    -3.2222    26.6750   496.4324 </r>
       <r>    -3.1281    11.4491   497.5094 </r>
       <r>    -3.0340    10.2449   498.4732 </r>
       <r>    -2.9400     7.2092   499.1514 </r>
       <r>    -2.8459     7.6309   499.8693 </r>
       <r>    -2.7518     1.3836   499.9995 </r>
       <r>    -2.6577     0.0057   500.0000 </r>
       <r>    -2.5637     0.0000   500.0000 </r>
       <r>    -2.4696     0.0000   500.0000 </r>
       <r>    -2.3755     0.0000   500.0000 </r>
       <r>    -2.2814     0.0000   500.0000 </r>
       <r>    -2.1874     0.0000   500.0000 </r>
       <r>    -2.0933     0.0000   500.0000 </r>
       <r>    -1.9992     0.0022   500.0002 </r>
       <r>    -1.9051     0.5146   500.0486 </r>
       <r>    -1.8111     0.8237   500.1261 </r>
       <r>    -1.7170     4.5956   500.5584 </r>
       <r>    -1.6229    19.8090   502.4220 </r>
       <r>    -1.5288    40.1753   506.2014 </r>
       <r>    -1.4348    39.3817   509.9062 </r>
       <r>    -1.3407    21.8073   511.9578 </r>
       <r>    -1.2466    68.3032   518.3833 </r>
       <r>    -1.1526    75.4350   525.4798 </r>
       <r>    -1.0585    45.6460   529.7740 </r>
       <r>    -0.9644    52.1655   534.6814 </r>
       <r>    -0.8703    84.7959   542.6585 </r>
       <r>    -0.7763    45.9215   546.9786 </r>
       <r>    -0.6822    30.1809   549.8178 </r>
       <r>    -0.5881     5.2466   550.3114 </r>
       <r>    -0.4940    20.1325   552.2053 </r>
       <r>    -0.4000    70.1918   558.8086 </r>
       <r>    -0.3059    67.6808   565.1756 </r>
       <r>    -0.2118    97.8610   574.3818 </r>
       <r>    -0.1177    67.5148   580.7332 </r>
       <r>    -0.0237    59.7646   586.3556 </r>
       <r>     0.0704    53.1705   591.3575 </r>
       <r>     0.1645    65.7126   597.5394 </r>
       <r>     0.2586   105.6341   607.4769 </r>
       <r>     0.3526    65.5070   613.6394 </r>
       <r>     0.4467    24.6805   615.9612 </r>
       <r>     0.5408     0.4121   616.0000 </r>
       <r>     0.6349     0.0000   616.0000 </r>
       <r>     0.7289     0.0000   616.0000 </r>
       <r>     0.8230     0.0000   616.0000 </r>
       <r>     0.9171     0.0000   616.0000 </r>
       <r>     1.0112     0.0000   616.0000 </r>
       <r>     1.1052     0.0000   616.0000 </r>
       <r>     1.1993     0.0000   616.0000 </r>
       <r>     1.2934     0.0000   616.0000 </r>
       <r>     1.3875     0.0000   616.0000 </r>
       <r>     1.4815     0.0000   616.0000 </r>
       <r>     1.5756     0.0000   616.0000 </r>
       <r>     1.6697     0.0000   616.0000 </r>
      </set>
     </set>
    </array>
   </total>
  </dos>
 </calculation>
 <structure name="finalpos" >
  <crystal>
   <varray name="basis" >
    <v>      21.32465726      -0.00000000       0.00000000 </v>
    <v>     -10.66232863      18.46769492       0.00000000 </v>
    <v>       0.00000000       0.00000000      26.60855257 </v>
   </varray>
   <i name="volume">  10478.90738675 </i>
   <varray name="rec_basis" >
    <v>       0.04689407       0.02707430      -0.00000000 </v>
    <v>       0.00000000       0.05414861      -0.00000000 </v>
    <v>       0.00000000       0.00000000       0.03758190 </v>
   </varray>
  </crystal>
  <varray name="positions" >
   <v>       0.13362660       0.06666667       0.53194385 </v>
   <v>       0.33333333       0.06666667       0.53165059 </v>
   <v>       0.53333333       0.06666667       0.53165059 </v>
   <v>       0.73333333       0.06666667       0.53165059 </v>
   <v>       0.93333333       0.06666667       0.53165059 </v>
   <v>       0.13333333       0.26666667       0.53165059 </v>
   <v>       0.33333333       0.26666667       0.53165059 </v>
   <v>       0.53333333       0.26666667       0.53165059 </v>
   <v>       0.73333333       0.26666667       0.53165059 </v>
   <v>       0.93333333       0.26666667       0.53165059 </v>
   <v>       0.13333333       0.46666667       0.53165059 </v>
   <v>       0.33333333       0.46666667       0.53165059 </v>
   <v>       0.53333333       0.46666667       0.53165059 </v>
   <v>       0.73333333       0.46666667       0.53165059 </v>
   <v>       0.93333333       0.46666667       0.53165059 </v>
   <v>       0.13333333       0.66666667       0.53165059 </v>
   <v>       0.33333333       0.66666667       0.53165059 </v>
   <v>       0.53333333       0.66666667       0.53165059 </v>
   <v>       0.73333333       0.66666667       0.53165059 </v>
   <v>       0.93333333       0.66666667       0.53165059 </v>
   <v>       0.13333333       0.86666667       0.53165059 </v>
   <v>       0.33333333       0.86666667       0.53165059 </v>
   <v>       0.53333333       0.86666667       0.53165059 </v>
   <v>       0.73333333       0.86666667       0.53165059 </v>
   <v>       0.93333333       0.86666667       0.53165059 </v>
   <v>       0.06666667       0.13333333       0.46834941 </v>
   <v>       0.26666667       0.13333333       0.46834941 </v>
   <v>       0.46666667       0.13333333       0.46834941 </v>
   <v>       0.66666667       0.13333333       0.46834941 </v>
   <v>       0.86666667       0.13333333       0.46834941 </v>
   <v>       0.06666667       0.33333333       0.46834941 </v>
   <v>       0.26666667       0.33333333       0.46834941 </v>
   <v>       0.46666667       0.33333333       0.46834941 </v>
   <v>       0.66666667       0.33333333       0.46834941 </v>
   <v>       0.86666667       0.33333333       0.46834941 </v>
   <v>       0.06666667       0.53333333       0.46834941 </v>
   <v>       0.26666667       0.53333333       0.46834941 </v>
   <v>       0.46666667       0.53333333       0.46834941 </v>
   <v>       0.66666667       0.53333333       0.46834941 </v>
   <v>       0.86666667       0.53333333       0.46834941 </v>
   <v>       0.06666667       0.73333333       0.46834941 </v>
   <v>       0.26666667       0.73333333       0.46834941 </v>
   <v>       0.46666667       0.73333333       0.46834941 </v>
   <v>       0.66666667       0.73333333       0.46834941 </v>
   <v>       0.86666667       0.73333333       0.46834941 </v>
   <v>       0.06666667       0.93333333       0.46834941 </v>
   <v>       0.26666667       0.93333333       0.46834941 </v>
   <v>       0.46666667       0.93333333       0.46834941 </v>
   <v>       0.66666667       0.93333333       0.46834941 </v>
   <v>       0.86666667       0.93333333       0.46834941 </v>
  </varray>
 </structure>
</modeling>
