generated by phonopy
   1.0
    25.5895887141164806   -0.0000000000000012    0.0000000000000000
   -12.7947943570582403   22.1612338988263922    0.0000000000000000
     0.0000000000000000    0.0000000000000005   26.6085525739213189
Bi Sb
  36   36
Direct
  0.1111111109999996  0.0555555554999998  0.5316505883501136
  0.2777777776666662  0.0555555554999998  0.5316505883501136
  0.4444444443333329  0.0555555554999998  0.5316505883501136
  0.6111111109999996  0.0555555554999998  0.5316505883501136
  0.7777777776666661  0.0555555554999998  0.5316505883501136
  0.9444444443333329  0.0555555554999998  0.5316505883501136
  0.1111111109999996  0.2222222221666665  0.5316505883501136
  0.2777777776666662  0.2222222221666665  0.5316505883501136
  0.4444444443333328  0.2222222221666665  0.5316505883501136
  0.6111111109999995  0.2222222221666665  0.5316505883501136
  0.7777777776666660  0.2222222221666665  0.5316505883501136
  0.9444444443333327  0.2222222221666665  0.5316505883501136
  0.1111111109999996  0.3888888888333331  0.5316505883501136
  0.2777777776666662  0.3888888888333331  0.5316505883501136
  0.4444444443333329  0.3888888888333331  0.5316505883501136
  0.6111111109999995  0.3888888888333331  0.5316505883501136
  0.7777777776666661  0.3888888888333331  0.5316505883501136
  0.9444444443333327  0.3888888888333331  0.5316505883501136
  0.1111111109999996  0.5555555554999998  0.5316505883501136
  0.2777777776666662  0.5555555554999998  0.5316505883501136
  0.4444444443333329  0.5555555554999998  0.5316505883501136
  0.6111111109999996  0.5555555554999998  0.5316505883501136
  0.7777777776666661  0.5555555554999998  0.5316505883501136
  0.9444444443333329  0.5555555554999998  0.5316505883501136
  0.1111111109999996  0.7222222221666664  0.5316505883501136
  0.2777777776666662  0.7222222221666664  0.5316505883501136
  0.4444444443333329  0.7222222221666664  0.5316505883501136
  0.6111111109999995  0.7222222221666665  0.5316505883501136
  0.7777777776666661  0.7222222221666665  0.5316505883501136
  0.9444444443333329  0.7222222221666665  0.5316505883501136
  0.1111111109999996  0.8888888888333331  0.5316505883501136
  0.2777777776666662  0.8888888888333331  0.5316505883501136
  0.4444444443333329  0.8888888888333332  0.5316505883501136
  0.6111111109999996  0.8888888888333332  0.5316505883501136
  0.7777777776666661  0.8888888888333332  0.5316505883501136
  0.9444444443333329  0.8888888888333332  0.5316505883501136
  0.0558264356780290  0.1111111109999996  0.4686202918279155
  0.2222222221666664  0.1111111109999996  0.4683494116498864
  0.3888888888333331  0.1111111109999996  0.4683494116498864
  0.5555555554999997  0.1111111109999996  0.4683494116498864
  0.7222222221666663  0.1111111109999996  0.4683494116498864
  0.8888888888333331  0.1111111109999996  0.4683494116498864
  0.0555555554999998  0.2777777776666662  0.4683494116498864
  0.2222222221666664  0.2777777776666662  0.4683494116498864
  0.3888888888333330  0.2777777776666662  0.4683494116498864
  0.5555555554999998  0.2777777776666662  0.4683494116498864
  0.7222222221666663  0.2777777776666662  0.4683494116498864
  0.8888888888333329  0.2777777776666662  0.4683494116498864
  0.0555555554999998  0.4444444443333330  0.4683494116498864
  0.2222222221666664  0.4444444443333329  0.4683494116498864
  0.3888888888333331  0.4444444443333329  0.4683494116498864
  0.5555555554999997  0.4444444443333329  0.4683494116498864
  0.7222222221666663  0.4444444443333329  0.4683494116498864
  0.8888888888333329  0.4444444443333329  0.4683494116498864
  0.0555555554999998  0.6111111109999996  0.4683494116498864
  0.2222222221666664  0.6111111109999996  0.4683494116498864
  0.3888888888333331  0.6111111109999996  0.4683494116498864
  0.5555555554999997  0.6111111109999996  0.4683494116498864
  0.7222222221666663  0.6111111109999996  0.4683494116498864
  0.8888888888333331  0.6111111109999996  0.4683494116498864
  0.0555555554999998  0.7777777776666661  0.4683494116498864
  0.2222222221666664  0.7777777776666662  0.4683494116498864
  0.3888888888333330  0.7777777776666662  0.4683494116498864
  0.5555555554999997  0.7777777776666662  0.4683494116498864
  0.7222222221666663  0.7777777776666662  0.4683494116498864
  0.8888888888333329  0.7777777776666662  0.4683494116498864
  0.0555555554999997  0.9444444443333329  0.4683494116498864
  0.2222222221666664  0.9444444443333329  0.4683494116498864
  0.3888888888333330  0.9444444443333329  0.4683494116498864
  0.5555555554999997  0.9444444443333329  0.4683494116498864
  0.7222222221666663  0.9444444443333329  0.4683494116498864
  0.8888888888333329  0.9444444443333329  0.4683494116498864
