generated by phonopy
   1.0
    29.6839229099999997   -0.0000000000000012    0.0000000000000000
   -14.8419614519999996   25.7070313199999987    0.0000000000000000
     0.0000000000000000    0.0000000000000005   26.6085525739213189
Bi Sb
  36   36
Direct
  0.1108602590356925  0.0555555554999998  0.5246505904247837
  0.2777777776666662  0.0555555554999998  0.5249014423890909
  0.4444444443333329  0.0555555554999998  0.5249014423890909
  0.6111111109999996  0.0555555554999998  0.5249014423890909
  0.7777777776666662  0.0555555554999998  0.5249014423890909
  0.9444444443333329  0.0555555554999998  0.5249014423890909
  0.1111111109999996  0.2222222221666665  0.5249014423890909
  0.2777777776666662  0.2222222221666665  0.5249014423890909
  0.4444444443333329  0.2222222221666665  0.5249014423890909
  0.6111111109999996  0.2222222221666665  0.5249014423890909
  0.7777777776666662  0.2222222221666665  0.5249014423890909
  0.9444444443333329  0.2222222221666665  0.5249014423890909
  0.1111111109999996  0.3888888888333332  0.5249014423890909
  0.2777777776666662  0.3888888888333332  0.5249014423890909
  0.4444444443333329  0.3888888888333332  0.5249014423890909
  0.6111111109999996  0.3888888888333331  0.5249014423890909
  0.7777777776666662  0.3888888888333331  0.5249014423890909
  0.9444444443333329  0.3888888888333331  0.5249014423890909
  0.1111111109999996  0.5555555554999998  0.5249014423890909
  0.2777777776666662  0.5555555554999998  0.5249014423890909
  0.4444444443333329  0.5555555554999998  0.5249014423890909
  0.6111111109999996  0.5555555554999999  0.5249014423890909
  0.7777777776666662  0.5555555554999999  0.5249014423890909
  0.9444444443333330  0.5555555554999998  0.5249014423890909
  0.1111111109999996  0.7222222221666664  0.5249014423890909
  0.2777777776666662  0.7222222221666664  0.5249014423890909
  0.4444444443333329  0.7222222221666664  0.5249014423890909
  0.6111111109999997  0.7222222221666664  0.5249014423890909
  0.7777777776666662  0.7222222221666664  0.5249014423890909
  0.9444444443333330  0.7222222221666664  0.5249014423890909
  0.1111111109999996  0.8888888888333332  0.5249014423890909
  0.2777777776666662  0.8888888888333332  0.5249014423890909
  0.4444444443333330  0.8888888888333332  0.5249014423890909
  0.6111111109999997  0.8888888888333332  0.5249014423890909
  0.7777777776666663  0.8888888888333332  0.5249014423890909
  0.9444444443333330  0.8888888888333332  0.5249014423890909
  0.0555555554999998  0.1111111109999996  0.4750985576109092
  0.2222222221666665  0.1111111109999996  0.4750985576109092
  0.3888888888333331  0.1111111109999996  0.4750985576109092
  0.5555555554999998  0.1111111109999996  0.4750985576109092
  0.7222222221666664  0.1111111109999996  0.4750985576109092
  0.8888888888333331  0.1111111109999996  0.4750985576109092
  0.0555555554999998  0.2777777776666662  0.4750985576109092
  0.2222222221666665  0.2777777776666662  0.4750985576109092
  0.3888888888333332  0.2777777776666663  0.4750985576109092
  0.5555555554999998  0.2777777776666662  0.4750985576109092
  0.7222222221666664  0.2777777776666662  0.4750985576109092
  0.8888888888333331  0.2777777776666662  0.4750985576109092
  0.0555555554999998  0.4444444443333330  0.4750985576109092
  0.2222222221666665  0.4444444443333330  0.4750985576109092
  0.3888888888333332  0.4444444443333330  0.4750985576109092
  0.5555555554999998  0.4444444443333330  0.4750985576109092
  0.7222222221666665  0.4444444443333329  0.4750985576109092
  0.8888888888333332  0.4444444443333329  0.4750985576109092
  0.0555555554999998  0.6111111109999996  0.4750985576109092
  0.2222222221666665  0.6111111109999996  0.4750985576109092
  0.3888888888333332  0.6111111109999996  0.4750985576109092
  0.5555555554999999  0.6111111109999996  0.4750985576109092
  0.7222222221666664  0.6111111109999997  0.4750985576109092
  0.8888888888333331  0.6111111109999997  0.4750985576109092
  0.0555555554999998  0.7777777776666663  0.4750985576109092
  0.2222222221666665  0.7777777776666663  0.4750985576109092
  0.3888888888333332  0.7777777776666663  0.4750985576109092
  0.5555555554999999  0.7777777776666663  0.4750985576109092
  0.7222222221666664  0.7777777776666663  0.4750985576109092
  0.8888888888333331  0.7777777776666663  0.4750985576109092
  0.0555555554999999  0.9444444443333330  0.4750985576109092
  0.2222222221666665  0.9444444443333329  0.4750985576109092
  0.3888888888333332  0.9444444443333329  0.4750985576109092
  0.5555555554999998  0.9444444443333329  0.4750985576109092
  0.7222222221666664  0.9444444443333329  0.4750985576109092
  0.8888888888333331  0.9444444443333329  0.4750985576109092
