generated by phonopy
   1.0
    29.6637567982413231    0.0000000000000000    0.0000000000000000
   -14.8318783991206615   25.6895669606099517    0.0000000000000000
     0.0000000000000000    0.0000000000000000   18.1184253028625299
Bi Sb
  36   36
Direct
  0.0000000000000000  0.0000000000000000  0.5366218327998296
  0.1666666666666667  0.0000000000000000  0.5366218327998296
  0.3333333333333333  0.0000000000000000  0.5366218327998296
  0.5000000000000000  0.0000000000000000  0.5366218327998296
  0.6666666666666666  0.0000000000000000  0.5366218327998296
  0.8333333333333333  0.0000000000000000  0.5366218327998296
  0.0000000000000000  0.1666666666666667  0.5366218327998296
  0.1666666666666667  0.1666666666666667  0.5366218327998296
  0.3333333333333333  0.1666666666666667  0.5366218327998296
  0.5000000000000000  0.1666666666666667  0.5366218327998296
  0.6666666666666666  0.1666666666666667  0.5366218327998296
  0.8333333333333333  0.1666666666666667  0.5366218327998296
  0.0000000000000000  0.3333333333333333  0.5366218327998296
  0.1666666666666667  0.3333333333333333  0.5366218327998296
  0.3333333333333333  0.3333333333333333  0.5366218327998296
  0.4999999999999999  0.3333333333333333  0.5366218327998296
  0.6666666666666666  0.3333333333333333  0.5366218327998296
  0.8333333333333333  0.3333333333333333  0.5366218327998296
  0.0000000000000000  0.5000000000000000  0.5366218327998296
  0.1666666666666667  0.5000000000000000  0.5366218327998296
  0.3333333333333333  0.5000000000000000  0.5366218327998296
  0.5000000000000000  0.5000000000000000  0.5366218327998296
  0.6666666666666666  0.5000000000000000  0.5366218327998296
  0.8333333333333333  0.5000000000000000  0.5366218327998296
  0.0000000000000000  0.6666666666666666  0.5366218327998296
  0.1666666666666667  0.6666666666666666  0.5366218327998296
  0.3333333333333333  0.6666666666666666  0.5366218327998296
  0.5000000000000000  0.6666666666666666  0.5366218327998296
  0.6666666666666666  0.6666666666666666  0.5366218327998296
  0.8333333333333333  0.6666666666666666  0.5366218327998296
  0.0000000000000000  0.8333333333333333  0.5366218327998296
  0.1666666666666667  0.8333333333333333  0.5366218327998296
  0.3333333333333333  0.8333333333333333  0.5366218327998296
  0.5000000000000000  0.8333333333333333  0.5366218327998296
  0.6666666666666666  0.8333333333333333  0.5366218327998296
  0.8333333333333333  0.8333333333333333  0.5366218327998296
  0.0558432474726434  0.1111111109999996  0.4636658591728140
  0.2222222221666665  0.1111111109999996  0.4633781672001704
  0.3888888888333331  0.1111111109999996  0.4633781672001704
  0.5555555554999998  0.1111111109999996  0.4633781672001704
  0.7222222221666664  0.1111111109999996  0.4633781672001704
  0.8888888888333331  0.1111111109999996  0.4633781672001704
  0.0555555554999998  0.2777777776666662  0.4633781672001704
  0.2222222221666665  0.2777777776666662  0.4633781672001704
  0.3888888888333332  0.2777777776666662  0.4633781672001704
  0.5555555554999998  0.2777777776666662  0.4633781672001704
  0.7222222221666665  0.2777777776666662  0.4633781672001704
  0.8888888888333332  0.2777777776666662  0.4633781672001704
  0.0555555554999998  0.4444444443333329  0.4633781672001704
  0.2222222221666664  0.4444444443333329  0.4633781672001704
  0.3888888888333331  0.4444444443333329  0.4633781672001704
  0.5555555554999998  0.4444444443333329  0.4633781672001704
  0.7222222221666664  0.4444444443333329  0.4633781672001704
  0.8888888888333331  0.4444444443333329  0.4633781672001704
  0.0555555554999998  0.6111111109999996  0.4633781672001704
  0.2222222221666665  0.6111111109999996  0.4633781672001704
  0.3888888888333331  0.6111111109999996  0.4633781672001704
  0.5555555554999998  0.6111111109999996  0.4633781672001704
  0.7222222221666664  0.6111111109999996  0.4633781672001704
  0.8888888888333331  0.6111111109999996  0.4633781672001704
  0.0555555554999998  0.7777777776666662  0.4633781672001704
  0.2222222221666665  0.7777777776666662  0.4633781672001704
  0.3888888888333331  0.7777777776666662  0.4633781672001704
  0.5555555554999998  0.7777777776666662  0.4633781672001704
  0.7222222221666664  0.7777777776666662  0.4633781672001704
  0.8888888888333331  0.7777777776666662  0.4633781672001704
  0.0555555554999998  0.9444444443333329  0.4633781672001704
  0.2222222221666664  0.9444444443333329  0.4633781672001704
  0.3888888888333331  0.9444444443333329  0.4633781672001704
  0.5555555554999998  0.9444444443333329  0.4633781672001704
  0.7222222221666664  0.9444444443333329  0.4633781672001704
  0.8888888888333331  0.9444444443333329  0.4633781672001704
