Buckled BiSb Strain 16 percent
   1.00000000000000
     4.9439594663735535    0.0000000000000000    0.0000000000000000
    -2.4719797331867768    4.2815944934349917    0.0000000000000000
     0.0000000000000000    0.0000000000000000   18.1184253028625299
  Bi              Sb
     1     1
Direct
  0.0000000000000000  0.0000000000000000  0.5366218327998296
  0.3333333329999988  0.6666666659999976  0.4633781672001704

  0.00000000E+00  0.00000000E+00  0.00000000E+00
  0.00000000E+00  0.00000000E+00  0.00000000E+00
