generated by phonopy
   1.0
    22.1875705719000003    0.0000000000000000    0.0000000000000000
     0.0000000000000000   24.7080013276199928    0.0000000000000000
     0.0000000000000000    0.0000000000000000   17.0000000000000000
Bi Sb
  30   30
Direct
  0.0574858545912122  0.1996988680640440  0.5449394132794800
  0.3911203198605014  0.2000000000000000  0.5449394132794800
  0.7244536531938348  0.2000000000000000  0.5449394132794800
  0.0577869865271682  0.4000000000000000  0.5449394132794800
  0.3911203198605014  0.4000000000000000  0.5449394132794800
  0.7244536531938348  0.4000000000000000  0.5449394132794800
  0.0577869865271682  0.6000000000000000  0.5449394132794800
  0.3911203198605014  0.6000000000000000  0.5449394132794800
  0.7244536531938348  0.6000000000000000  0.5449394132794800
  0.0577869865271682  0.7999999999999999  0.5449394132794800
  0.3911203198605014  0.7999999999999999  0.5449394132794800
  0.7244536531938348  0.7999999999999999  0.5449394132794800
  0.0577869865271682  0.0000000000000000  0.5449394132794800
  0.3911203198605014  0.0000000000000000  0.5449394132794800
  0.7244536531938348  0.0000000000000000  0.5449394132794800
  0.2244536531938349  0.1000000000000000  0.5449394132794800
  0.5577869865271682  0.1000000000000000  0.5449394132794800
  0.8911203198605016  0.1000000000000000  0.5449394132794800
  0.2244536531938349  0.3000000000000000  0.5449394132794800
  0.5577869865271682  0.3000000000000000  0.5449394132794800
  0.8911203198605016  0.3000000000000000  0.5449394132794800
  0.2244536531938349  0.4999999999999999  0.5449394132794800
  0.5577869865271682  0.4999999999999999  0.5449394132794800
  0.8911203198605016  0.4999999999999999  0.5449394132794800
  0.2244536531938349  0.7000000000000001  0.5449394132794800
  0.5577869865271682  0.7000000000000001  0.5449394132794800
  0.8911203198605016  0.7000000000000001  0.5449394132794800
  0.2244536531938349  0.9000000000000000  0.5449394132794800
  0.5577869865271682  0.9000000000000000  0.5449394132794800
  0.8911203198605016  0.9000000000000000  0.5449394132794800
  0.1088796801394985  0.1000000000000000  0.4550605867205200
  0.4422130134728319  0.1000000000000000  0.4550605867205200
  0.7755463468061651  0.1000000000000000  0.4550605867205200
  0.1088796801394985  0.3000000000000000  0.4550605867205200
  0.4422130134728319  0.3000000000000000  0.4550605867205200
  0.7755463468061651  0.3000000000000000  0.4550605867205200
  0.1088796801394985  0.4999999999999999  0.4550605867205200
  0.4422130134728319  0.4999999999999999  0.4550605867205200
  0.7755463468061651  0.4999999999999999  0.4550605867205200
  0.1088796801394985  0.7000000000000001  0.4550605867205200
  0.4422130134728319  0.7000000000000001  0.4550605867205200
  0.7755463468061651  0.7000000000000001  0.4550605867205200
  0.1088796801394985  0.9000000000000000  0.4550605867205200
  0.4422130134728319  0.9000000000000000  0.4550605867205200
  0.7755463468061651  0.9000000000000000  0.4550605867205200
  0.2755463468061651  0.0000000000000000  0.4550605867205200
  0.6088796801394984  0.0000000000000000  0.4550605867205200
  0.9422130134728317  0.0000000000000000  0.4550605867205200
  0.2755463468061651  0.2000000000000000  0.4550605867205200
  0.6088796801394984  0.2000000000000000  0.4550605867205200
  0.9422130134728317  0.2000000000000000  0.4550605867205200
  0.2755463468061651  0.4000000000000000  0.4550605867205200
  0.6088796801394984  0.4000000000000000  0.4550605867205200
  0.9422130134728317  0.4000000000000000  0.4550605867205200
  0.2755463468061651  0.6000000000000000  0.4550605867205200
  0.6088796801394984  0.6000000000000000  0.4550605867205200
  0.9422130134728317  0.6000000000000000  0.4550605867205200
  0.2755463468061651  0.7999999999999999  0.4550605867205200
  0.6088796801394984  0.7999999999999999  0.4550605867205200
  0.9422130134728317  0.7999999999999999  0.4550605867205200
