Buckled BiAs strained 16%
   1.00000000000000
     7.3958568573000001    0.0000000000000000    0.0000000000000000
     0.0000000000000000    4.9416002655239986    0.0000000000000000
     0.0000000000000000    0.0000000000000000   17.0000000000000000
   Bi   Sb
     2     2
Direct
  0.1733609595815045  1.0000000000000000  0.5449394132794800
  0.6733609595815047  0.5000000000000000  0.5449394132794800
  0.3266390404184955  0.5000000000000000  0.4550605867205200
  0.8266390404184953  0.0000000000000000  0.4550605867205200

  0.00000000E+00  0.00000000E+00  0.00000000E+00
  0.00000000E+00  0.00000000E+00  0.00000000E+00
  0.00000000E+00  0.00000000E+00  0.00000000E+00
  0.00000000E+00  0.00000000E+00  0.00000000E+00
