generated by phonopy
   1.0
    24.1641252323433378    0.0000000000000000    0.0000000000000000
   -12.0820626161716689   20.9267463112367267    0.0000000000000000
     0.0000000000000001    0.0000000000000003   29.8404732724901258
Bi As
  36   36
Direct
  0.1111111109999996  0.0555555554999998  0.5259522856593876
  0.2777777776666662  0.0555555554999998  0.5259522856593876
  0.4444444443333329  0.0555555554999998  0.5259522856593876
  0.6111111109999995  0.0555555554999998  0.5259522856593876
  0.7777777776666662  0.0555555554999998  0.5259522856593876
  0.9444444443333329  0.0555555554999998  0.5259522856593876
  0.1111111109999996  0.2222222221666665  0.5259522856593876
  0.2777777776666662  0.2222222221666665  0.5259522856593876
  0.4444444443333329  0.2222222221666665  0.5259522856593876
  0.6111111109999996  0.2222222221666665  0.5259522856593876
  0.7777777776666662  0.2222222221666665  0.5259522856593876
  0.9444444443333329  0.2222222221666665  0.5259522856593876
  0.1111111109999996  0.3888888888333332  0.5259522856593876
  0.2777777776666662  0.3888888888333332  0.5259522856593876
  0.4444444443333329  0.3888888888333332  0.5259522856593876
  0.6111111109999996  0.3888888888333332  0.5259522856593876
  0.7777777776666661  0.3888888888333332  0.5259522856593876
  0.9444444443333326  0.3888888888333332  0.5259522856593876
  0.1111111109999996  0.5555555554999999  0.5259522856593876
  0.2777777776666663  0.5555555554999999  0.5259522856593876
  0.4444444443333329  0.5555555554999999  0.5259522856593876
  0.6111111109999996  0.5555555554999999  0.5259522856593876
  0.7777777776666661  0.5555555554999999  0.5259522856593876
  0.9444444443333329  0.5555555554999999  0.5259522856593876
  0.1111111109999996  0.7222222221666665  0.5259522856593876
  0.2777777776666663  0.7222222221666665  0.5259522856593876
  0.4444444443333329  0.7222222221666665  0.5259522856593876
  0.6111111109999996  0.7222222221666665  0.5259522856593876
  0.7777777776666662  0.7222222221666665  0.5259522856593876
  0.9444444443333329  0.7222222221666665  0.5259522856593876
  0.1111111109999996  0.8888888888333332  0.5259522856593876
  0.2777777776666663  0.8888888888333332  0.5259522856593876
  0.4444444443333330  0.8888888888333332  0.5259522856593876
  0.6111111109999996  0.8888888888333332  0.5259522856593876
  0.7777777776666662  0.8888888888333332  0.5259522856593876
  0.9444444443333329  0.8888888888333332  0.5259522856593876
  0.0558159899356696  0.1111111109999996  0.4743081487762822
  0.2222222221666665  0.1111111109999996  0.4740477143406123
  0.3888888888333331  0.1111111109999996  0.4740477143406123
  0.5555555554999998  0.1111111109999996  0.4740477143406123
  0.7222222221666664  0.1111111109999996  0.4740477143406123
  0.8888888888333329  0.1111111109999996  0.4740477143406123
  0.0555555554999998  0.2777777776666662  0.4740477143406123
  0.2222222221666665  0.2777777776666662  0.4740477143406123
  0.3888888888333331  0.2777777776666662  0.4740477143406123
  0.5555555554999998  0.2777777776666662  0.4740477143406123
  0.7222222221666665  0.2777777776666662  0.4740477143406123
  0.8888888888333332  0.2777777776666662  0.4740477143406123
  0.0555555554999998  0.4444444443333329  0.4740477143406123
  0.2222222221666665  0.4444444443333329  0.4740477143406123
  0.3888888888333331  0.4444444443333329  0.4740477143406123
  0.5555555554999998  0.4444444443333329  0.4740477143406123
  0.7222222221666664  0.4444444443333329  0.4740477143406123
  0.8888888888333331  0.4444444443333329  0.4740477143406123
  0.0555555554999998  0.6111111109999996  0.4740477143406123
  0.2222222221666665  0.6111111109999996  0.4740477143406123
  0.3888888888333331  0.6111111109999996  0.4740477143406123
  0.5555555554999998  0.6111111109999996  0.4740477143406123
  0.7222222221666665  0.6111111109999996  0.4740477143406123
  0.8888888888333331  0.6111111109999996  0.4740477143406123
  0.0555555554999998  0.7777777776666663  0.4740477143406123
  0.2222222221666665  0.7777777776666663  0.4740477143406123
  0.3888888888333332  0.7777777776666663  0.4740477143406123
  0.5555555554999998  0.7777777776666663  0.4740477143406123
  0.7222222221666665  0.7777777776666663  0.4740477143406123
  0.8888888888333332  0.7777777776666663  0.4740477143406123
  0.0555555554999999  0.9444444443333330  0.4740477143406123
  0.2222222221666665  0.9444444443333330  0.4740477143406123
  0.3888888888333332  0.9444444443333330  0.4740477143406123
  0.5555555554999998  0.9444444443333330  0.4740477143406123
  0.7222222221666664  0.9444444443333330  0.4740477143406123
  0.8888888888333332  0.9444444443333330  0.4740477143406123
