Buckled BiAs strained 8%
   1.00000000000000
     4.3495425418218003    0.0000000000000000    0.0000000000000000
    -2.1747712709109002    3.7668143360226112    0.0000000000000000
     0.0000000000000000    0.0000000000000000   29.8404732724901258
   Bi   As
     1     1
Direct
  0.6666666659999976  0.3333333329999988  0.5239947534903905
  0.3333333329999988  0.6666666659999976  0.4760052465096095

  0.00000000E+00  0.00000000E+00  0.00000000E+00
  0.00000000E+00  0.00000000E+00  0.00000000E+00
