generated by phonopy
   1.0
    26.0972552509308002    0.0000000000000000    0.0000000000000000
   -13.0486276254654001   22.6008860161356679    0.0000000000000000
     0.0000000000000000    0.0000000000000000   29.8404732724901258
Bi As
  36   36
Direct
  0.1111111109999996  0.0555555554999998  0.5239947534903905
  0.2777777776666662  0.0555555554999998  0.5239947534903905
  0.4444444443333329  0.0555555554999998  0.5239947534903905
  0.6111111109999996  0.0555555554999998  0.5239947534903905
  0.7777777776666662  0.0555555554999998  0.5239947534903905
  0.9444444443333329  0.0555555554999998  0.5239947534903905
  0.1111111109999996  0.2222222221666665  0.5239947534903905
  0.2777777776666663  0.2222222221666665  0.5239947534903905
  0.4444444443333330  0.2222222221666665  0.5239947534903905
  0.6111111109999996  0.2222222221666665  0.5239947534903905
  0.7777777776666663  0.2222222221666665  0.5239947534903905
  0.9444444443333330  0.2222222221666665  0.5239947534903905
  0.1111111109999996  0.3888888888333331  0.5239947534903905
  0.2777777776666662  0.3888888888333331  0.5239947534903905
  0.4444444443333329  0.3888888888333331  0.5239947534903905
  0.6111111109999996  0.3888888888333331  0.5239947534903905
  0.7777777776666662  0.3888888888333331  0.5239947534903905
  0.9444444443333329  0.3888888888333331  0.5239947534903905
  0.1111111109999996  0.5555555554999999  0.5239947534903905
  0.2777777776666662  0.5555555554999999  0.5239947534903905
  0.4444444443333330  0.5555555554999999  0.5239947534903905
  0.6111111109999996  0.5555555554999999  0.5239947534903905
  0.7777777776666663  0.5555555554999999  0.5239947534903905
  0.9444444443333329  0.5555555554999999  0.5239947534903905
  0.1111111109999996  0.7222222221666665  0.5239947534903905
  0.2777777776666663  0.7222222221666665  0.5239947534903905
  0.4444444443333330  0.7222222221666665  0.5239947534903905
  0.6111111109999996  0.7222222221666665  0.5239947534903905
  0.7777777776666663  0.7222222221666665  0.5239947534903905
  0.9444444443333330  0.7222222221666665  0.5239947534903905
  0.1111111109999996  0.8888888888333331  0.5239947534903905
  0.2777777776666662  0.8888888888333331  0.5239947534903905
  0.4444444443333329  0.8888888888333331  0.5239947534903905
  0.6111111109999996  0.8888888888333331  0.5239947534903905
  0.7777777776666663  0.8888888888333331  0.5239947534903905
  0.9444444443333330  0.8888888888333331  0.5239947534903905
  0.0558078106050400  0.1111111109999996  0.4762575016146496
  0.2222222221666665  0.1111111109999996  0.4760052465096095
  0.3888888888333332  0.1111111109999996  0.4760052465096095
  0.5555555554999998  0.1111111109999996  0.4760052465096095
  0.7222222221666664  0.1111111109999996  0.4760052465096095
  0.8888888888333329  0.1111111109999996  0.4760052465096095
  0.0555555554999998  0.2777777776666662  0.4760052465096095
  0.2222222221666665  0.2777777776666662  0.4760052465096095
  0.3888888888333332  0.2777777776666662  0.4760052465096095
  0.5555555554999998  0.2777777776666662  0.4760052465096095
  0.7222222221666664  0.2777777776666662  0.4760052465096095
  0.8888888888333331  0.2777777776666662  0.4760052465096095
  0.0555555554999998  0.4444444443333330  0.4760052465096095
  0.2222222221666665  0.4444444443333330  0.4760052465096095
  0.3888888888333332  0.4444444443333330  0.4760052465096095
  0.5555555554999999  0.4444444443333330  0.4760052465096095
  0.7222222221666665  0.4444444443333330  0.4760052465096095
  0.8888888888333332  0.4444444443333330  0.4760052465096095
  0.0555555554999998  0.6111111109999996  0.4760052465096095
  0.2222222221666665  0.6111111109999996  0.4760052465096095
  0.3888888888333332  0.6111111109999996  0.4760052465096095
  0.5555555554999998  0.6111111109999996  0.4760052465096095
  0.7222222221666664  0.6111111109999996  0.4760052465096095
  0.8888888888333331  0.6111111109999996  0.4760052465096095
  0.0555555554999998  0.7777777776666662  0.4760052465096095
  0.2222222221666665  0.7777777776666662  0.4760052465096095
  0.3888888888333332  0.7777777776666662  0.4760052465096095
  0.5555555554999998  0.7777777776666662  0.4760052465096095
  0.7222222221666664  0.7777777776666662  0.4760052465096095
  0.8888888888333331  0.7777777776666662  0.4760052465096095
  0.0555555554999998  0.9444444443333329  0.4760052465096095
  0.2222222221666665  0.9444444443333329  0.4760052465096095
  0.3888888888333331  0.9444444443333329  0.4760052465096095
  0.5555555554999998  0.9444444443333329  0.4760052465096095
  0.7222222221666664  0.9444444443333329  0.4760052465096095
  0.8888888888333329  0.9444444443333329  0.4760052465096095
