generated by phonopy
   1.0
    29.4986009656075971    0.0000000000000000    0.0009066690257608
     0.0000000000000000   21.2906669840692331    0.0000000000000000
     0.0004775466920902    0.0000000000000000   17.0563598770962130
Bi Sb
  40   40
Direct
  0.0416688721054328  0.0000000000000000  0.5488731826648773
  0.2916688721054327  0.0000000000000000  0.5494594742340126
  0.5416688721054328  0.0000000000000000  0.5494594742340126
  0.7916688721054327  0.0000000000000000  0.5494594742340126
  0.0416688721054328  0.2000000000000000  0.5494594742340126
  0.2916688721054327  0.2000000000000000  0.5494594742340126
  0.5416688721054328  0.2000000000000000  0.5494594742340126
  0.7916688721054327  0.2000000000000000  0.5494594742340126
  0.0416688721054328  0.4000000000000000  0.5494594742340126
  0.2916688721054327  0.4000000000000000  0.5494594742340126
  0.5416688721054328  0.4000000000000000  0.5494594742340126
  0.7916688721054327  0.4000000000000000  0.5494594742340126
  0.0416688721054328  0.6000000000000001  0.5494594742340126
  0.2916688721054327  0.6000000000000001  0.5494594742340126
  0.5416688721054328  0.6000000000000001  0.5494594742340126
  0.7916688721054327  0.6000000000000001  0.5494594742340126
  0.0416688721054328  0.7999999999999999  0.5494594742340126
  0.2916688721054327  0.7999999999999999  0.5494594742340126
  0.5416688721054328  0.7999999999999999  0.5494594742340126
  0.7916688721054327  0.7999999999999999  0.5494594742340126
  0.1666688721054328  0.1000000000000000  0.5494594742340128
  0.4166688721054327  0.1000000000000000  0.5494594742340126
  0.6666688721054328  0.1000000000000000  0.5494594742340126
  0.9166688721054327  0.1000000000000000  0.5494594742340126
  0.1666688721054328  0.3000000000000000  0.5494594742340128
  0.4166688721054327  0.3000000000000000  0.5494594742340126
  0.6666688721054328  0.3000000000000000  0.5494594742340126
  0.9166688721054327  0.3000000000000000  0.5494594742340126
  0.1666688721054328  0.4999999999999999  0.5494594742340128
  0.4166688721054327  0.4999999999999999  0.5494594742340126
  0.6666688721054328  0.4999999999999999  0.5494594742340126
  0.9166688721054327  0.4999999999999999  0.5494594742340126
  0.1666688721054328  0.7000000000000001  0.5494594742340128
  0.4166688721054327  0.7000000000000001  0.5494594742340126
  0.6666688721054328  0.7000000000000001  0.5494594742340126
  0.9166688721054327  0.7000000000000001  0.5494594742340126
  0.1666688721054328  0.8999999999999999  0.5494594742340128
  0.4166688721054327  0.8999999999999999  0.5494594742340126
  0.6666688721054328  0.8999999999999999  0.5494594742340126
  0.9166688721054327  0.8999999999999999  0.5494594742340126
  0.0833311278945672  0.1000000000000000  0.4505405257659874
  0.3333311278945671  0.1000000000000000  0.4505405257659874
  0.5833311278945671  0.1000000000000000  0.4505405257659875
  0.8333311278945670  0.1000000000000000  0.4505405257659874
  0.0833311278945672  0.3000000000000000  0.4505405257659874
  0.3333311278945671  0.3000000000000000  0.4505405257659874
  0.5833311278945671  0.3000000000000000  0.4505405257659875
  0.8333311278945670  0.3000000000000000  0.4505405257659874
  0.0833311278945672  0.4999999999999999  0.4505405257659874
  0.3333311278945671  0.4999999999999999  0.4505405257659874
  0.5833311278945671  0.4999999999999999  0.4505405257659875
  0.8333311278945670  0.4999999999999999  0.4505405257659874
  0.0833311278945672  0.7000000000000001  0.4505405257659874
  0.3333311278945671  0.7000000000000001  0.4505405257659874
  0.5833311278945671  0.7000000000000001  0.4505405257659875
  0.8333311278945670  0.7000000000000001  0.4505405257659874
  0.0833311278945672  0.8999999999999999  0.4505405257659874
  0.3333311278945671  0.8999999999999999  0.4505405257659874
  0.5833311278945671  0.8999999999999999  0.4505405257659875
  0.8333311278945670  0.8999999999999999  0.4505405257659874
  0.2083311278945671  0.0000000000000000  0.4505405257659874
  0.4583311278945671  0.0000000000000000  0.4505405257659875
  0.7083311278945670  0.0000000000000000  0.4505405257659875
  0.9583311278945671  0.0000000000000000  0.4505405257659874
  0.2083311278945671  0.2000000000000000  0.4505405257659874
  0.4583311278945671  0.2000000000000000  0.4505405257659875
  0.7083311278945670  0.2000000000000000  0.4505405257659875
  0.9583311278945671  0.2000000000000000  0.4505405257659874
  0.2083311278945671  0.4000000000000000  0.4505405257659874
  0.4583311278945671  0.4000000000000000  0.4505405257659875
  0.7083311278945670  0.4000000000000000  0.4505405257659875
  0.9583311278945671  0.4000000000000000  0.4505405257659874
  0.2083311278945671  0.6000000000000001  0.4505405257659874
  0.4583311278945671  0.6000000000000001  0.4505405257659875
  0.7083311278945670  0.6000000000000001  0.4505405257659875
  0.9583311278945671  0.6000000000000001  0.4505405257659874
  0.2083311278945671  0.7999999999999999  0.4505405257659874
  0.4583311278945671  0.7999999999999999  0.4505405257659875
  0.7083311278945670  0.7999999999999999  0.4505405257659875
  0.9583311278945671  0.7999999999999999  0.4505405257659874
