Buckled BiSb Strain
   1.00000000000000
     7.3746502414018993    0.0000000000000000    0.0002266672564402
     0.0000000000000000    4.2581333968138466    0.0000000000000000
     0.0004775466920902    0.0000000000000000   17.0563598770962130
   Bi   Sb
     2     2
Direct
  0.1666754884217312  0.0000000000000000  0.5494594742340126
  0.6666754884217312  0.5000000000000000  0.5494594742340126
  0.3333245115782688  0.5000000000000000  0.4505405257659874
  0.8333245115782688  0.0000000000000000  0.4505405257659874

  0.00000000E+00  0.00000000E+00  0.00000000E+00
  0.00000000E+00  0.00000000E+00  0.00000000E+00
  0.00000000E+00  0.00000000E+00  0.00000000E+00
  0.00000000E+00  0.00000000E+00  0.00000000E+00
