<?xml version="1.0" encoding="ISO-8859-1"?>
<modeling>
 <generator>
  <i name="program" type="string">vasp </i>
  <i name="version" type="string">6.4.3  </i>
  <i name="subversion" type="string">19Mar24 (build Jan 17 2026 20:14:01) complex                          parallel </i>
  <i name="platform" type="string">LinuxIFC </i>
  <i name="date" type="string">2026 03 26 </i>
  <i name="time" type="string">15:59:41 </i>
 </generator>
 <incar>
  <i type="string" name="PREC">Accurate</i>
  <i type="int" name="IALGO">    38</i>
  <i type="logical" name="ADDGRID"> T  </i>
  <i type="int" name="ISPIN">     1</i>
  <i type="int" name="IBRION">     2</i>
  <i name="EDIFF">      0.00000001</i>
  <i type="int" name="NSW">     0</i>
  <i name="ENCUT">    500.00000000</i>
  <i name="POTIM">      0.02000000</i>
  <i type="logical" name="LREAL"> F  </i>
  <i type="int" name="ISMEAR">     0</i>
  <i name="SIGMA">      0.05000000</i>
  <i type="logical" name="LWAVE"> F  </i>
  <i type="logical" name="LCHARG"> F  </i>
 </incar>
 <primitive_cell>
  <structure name="primitive_cell" >
   <crystal>
    <varray name="basis" >
     <v>      21.32465726      -0.00000000       0.00000000 </v>
     <v>     -10.66232863      18.46769492       0.00000000 </v>
     <v>       0.00000000       0.00000000      26.60855257 </v>
    </varray>
    <i name="volume">  10478.90738675 </i>
    <varray name="rec_basis" >
     <v>       0.04689407       0.02707430      -0.00000000 </v>
     <v>       0.00000000       0.05414861      -0.00000000 </v>
     <v>       0.00000000       0.00000000       0.03758190 </v>
    </varray>
   </crystal>
   <varray name="positions" >
    <v>       0.13333333       0.06666667       0.53165059 </v>
    <v>       0.33333333       0.06666667       0.53165059 </v>
    <v>       0.53333333       0.06666667       0.53165059 </v>
    <v>       0.73333333       0.06666667       0.53165059 </v>
    <v>       0.93333333       0.06666667       0.53165059 </v>
    <v>       0.13333333       0.26666667       0.53165059 </v>
    <v>       0.33333333       0.26666667       0.53165059 </v>
    <v>       0.53333333       0.26666667       0.53165059 </v>
    <v>       0.73333333       0.26666667       0.53165059 </v>
    <v>       0.93333333       0.26666667       0.53165059 </v>
    <v>       0.13333333       0.46666667       0.53165059 </v>
    <v>       0.33333333       0.46666667       0.53165059 </v>
    <v>       0.53333333       0.46666667       0.53165059 </v>
    <v>       0.73333333       0.46666667       0.53165059 </v>
    <v>       0.93333333       0.46666667       0.53165059 </v>
    <v>       0.13333333       0.66666667       0.53165059 </v>
    <v>       0.33333333       0.66666667       0.53165059 </v>
    <v>       0.53333333       0.66666667       0.53165059 </v>
    <v>       0.73333333       0.66666667       0.53165059 </v>
    <v>       0.93333333       0.66666667       0.53165059 </v>
    <v>       0.13333333       0.86666667       0.53165059 </v>
    <v>       0.33333333       0.86666667       0.53165059 </v>
    <v>       0.53333333       0.86666667       0.53165059 </v>
    <v>       0.73333333       0.86666667       0.53165059 </v>
    <v>       0.93333333       0.86666667       0.53165059 </v>
    <v>       0.06637340       0.13333333       0.46805615 </v>
    <v>       0.26666667       0.13333333       0.46834941 </v>
    <v>       0.46666667       0.13333333       0.46834941 </v>
    <v>       0.66666667       0.13333333       0.46834941 </v>
    <v>       0.86666667       0.13333333       0.46834941 </v>
    <v>       0.06666667       0.33333333       0.46834941 </v>
    <v>       0.26666667       0.33333333       0.46834941 </v>
    <v>       0.46666667       0.33333333       0.46834941 </v>
    <v>       0.66666667       0.33333333       0.46834941 </v>
    <v>       0.86666667       0.33333333       0.46834941 </v>
    <v>       0.06666667       0.53333333       0.46834941 </v>
    <v>       0.26666667       0.53333333       0.46834941 </v>
    <v>       0.46666667       0.53333333       0.46834941 </v>
    <v>       0.66666667       0.53333333       0.46834941 </v>
    <v>       0.86666667       0.53333333       0.46834941 </v>
    <v>       0.06666667       0.73333333       0.46834941 </v>
    <v>       0.26666667       0.73333333       0.46834941 </v>
    <v>       0.46666667       0.73333333       0.46834941 </v>
    <v>       0.66666667       0.73333333       0.46834941 </v>
    <v>       0.86666667       0.73333333       0.46834941 </v>
    <v>       0.06666667       0.93333333       0.46834941 </v>
    <v>       0.26666667       0.93333333       0.46834941 </v>
    <v>       0.46666667       0.93333333       0.46834941 </v>
    <v>       0.66666667       0.93333333       0.46834941 </v>
    <v>       0.86666667       0.93333333       0.46834941 </v>
   </varray>
  </structure>
  <varray name="primitive_index" >
   <v type="int" >        1 </v>
   <v type="int" >        2 </v>
   <v type="int" >        3 </v>
   <v type="int" >        4 </v>
   <v type="int" >        5 </v>
   <v type="int" >        6 </v>
   <v type="int" >        7 </v>
   <v type="int" >        8 </v>
   <v type="int" >        9 </v>
   <v type="int" >       10 </v>
   <v type="int" >       11 </v>
   <v type="int" >       12 </v>
   <v type="int" >       13 </v>
   <v type="int" >       14 </v>
   <v type="int" >       15 </v>
   <v type="int" >       16 </v>
   <v type="int" >       17 </v>
   <v type="int" >       18 </v>
   <v type="int" >       19 </v>
   <v type="int" >       20 </v>
   <v type="int" >       21 </v>
   <v type="int" >       22 </v>
   <v type="int" >       23 </v>
   <v type="int" >       24 </v>
   <v type="int" >       25 </v>
   <v type="int" >       26 </v>
   <v type="int" >       27 </v>
   <v type="int" >       28 </v>
   <v type="int" >       29 </v>
   <v type="int" >       30 </v>
   <v type="int" >       31 </v>
   <v type="int" >       32 </v>
   <v type="int" >       33 </v>
   <v type="int" >       34 </v>
   <v type="int" >       35 </v>
   <v type="int" >       36 </v>
   <v type="int" >       37 </v>
   <v type="int" >       38 </v>
   <v type="int" >       39 </v>
   <v type="int" >       40 </v>
   <v type="int" >       41 </v>
   <v type="int" >       42 </v>
   <v type="int" >       43 </v>
   <v type="int" >       44 </v>
   <v type="int" >       45 </v>
   <v type="int" >       46 </v>
   <v type="int" >       47 </v>
   <v type="int" >       48 </v>
   <v type="int" >       49 </v>
   <v type="int" >       50 </v>
  </varray>
 </primitive_cell>
 <kpoints>
  <generation param="Gamma">
   <v type="int" name="divisions">       4        4        1 </v>
   <v name="usershift">      0.00000000       0.00000000       0.00000000 </v>
   <v name="genvec1">      0.25000000      -0.00000000       0.00000000 </v>
   <v name="genvec2">     -0.00000000       0.25000000       0.00000000 </v>
   <v name="genvec3">      0.00000000       0.00000000       1.00000000 </v>
   <v name="shift">      0.00000000       0.00000000       0.00000000 </v>
  </generation>
  <varray name="kpointlist" >
   <v>       0.00000000       0.00000000       0.00000000 </v>
   <v>       0.25000000      -0.00000000       0.00000000 </v>
   <v>       0.00000000       0.25000000       0.00000000 </v>
   <v>      -0.25000000       0.25000000       0.00000000 </v>
   <v>       0.50000000      -0.00000000       0.00000000 </v>
   <v>       0.00000000       0.50000000       0.00000000 </v>
   <v>       0.50000000       0.50000000       0.00000000 </v>
   <v>       0.25000000       0.25000000       0.00000000 </v>
   <v>      -0.25000000       0.50000000       0.00000000 </v>
   <v>       0.50000000       0.25000000      -0.00000000 </v>
  </varray>
  <varray name="weights" >
   <v>       0.06250000 </v>
   <v>       0.12500000 </v>
   <v>       0.12500000 </v>
   <v>       0.12500000 </v>
   <v>       0.06250000 </v>
   <v>       0.06250000 </v>
   <v>       0.06250000 </v>
   <v>       0.12500000 </v>
   <v>       0.12500000 </v>
   <v>       0.12500000 </v>
  </varray>
 </kpoints>
 <parameters>
  <separator name="general" >
   <i type="string" name="SYSTEM">unknown system</i>
   <i type="logical" name="LCOMPAT"> F  </i>
  </separator>
  <separator name="electronic" >
   <i type="string" name="PREC">accura</i>
   <i name="ENMAX">    500.00000000</i>
   <i name="ENAUG">    442.89900000</i>
   <i name="EDIFF">      0.00000001</i>
   <i type="int" name="IALGO">    38</i>
   <i type="int" name="IWAVPR">    10</i>
   <i type="int" name="NBANDS">   308</i>
   <i type="int" name="NBANDSLOW">    -1</i>
   <i type="int" name="NBANDSHIGH">    -1</i>
   <i name="NELECT">    500.00000000</i>
   <i type="int" name="TURBO">     0</i>
   <i type="int" name="IRESTART">     0</i>
   <i type="int" name="NREBOOT">     0</i>
   <i type="int" name="NMIN">     0</i>
   <i name="EREF">      0.00000000</i>
   <separator name="electronic smearing" >
    <i type="int" name="ISMEAR">     0</i>
    <i name="SIGMA">      0.05000000</i>
    <i name="KSPACING">      0.50000000</i>
    <i type="logical" name="KGAMMA"> T  </i>
    <i type="logical" name="KBLOWUP"> T  </i>
   </separator>
   <separator name="electronic projectors" >
    <i type="logical" name="LREAL"> F  </i>
    <v name="ROPT">      0.00000000      0.00000000</v>
    <i type="int" name="LMAXPAW">  -100</i>
    <i type="int" name="LMAXMIX">     2</i>
    <i type="logical" name="NLSPLINE"> F  </i>
   </separator>
   <separator name="electronic startup" >
    <i type="int" name="ISTART">     0</i>
    <i type="int" name="ICHARG">     2</i>
    <i type="int" name="INIWAV">     1</i>
   </separator>
   <separator name="electronic spin" >
    <i type="int" name="ISPIN">     1</i>
    <i type="logical" name="LNONCOLLINEAR"> F  </i>
    <v name="MAGMOM">      1.00000000      1.00000000      1.00000000      1.00000000      1.00000000      1.00000000      1.00000000      1.00000000      1.00000000      1.00000000      1.00000000      1.00000000      1.00000000      1.00000000      1.00000000      1.00000000      1.00000000      1.00000000      1.00000000      1.00000000
      1.00000000      1.00000000      1.00000000      1.00000000      1.00000000      1.00000000      1.00000000      1.00000000      1.00000000      1.00000000      1.00000000      1.00000000      1.00000000      1.00000000      1.00000000      1.00000000      1.00000000      1.00000000      1.00000000      1.00000000
      1.00000000      1.00000000      1.00000000      1.00000000      1.00000000      1.00000000      1.00000000      1.00000000      1.00000000      1.00000000</v>
    <i name="NUPDOWN">     -1.00000000</i>
    <i type="logical" name="LSORBIT"> F  </i>
    <v name="SAXIS">      0.00000000      0.00000000      1.00000000</v>
    <i type="logical" name="LSPIRAL"> F  </i>
    <v name="QSPIRAL">      0.00000000      0.00000000      0.00000000</v>
    <i type="logical" name="LZEROZ"> F  </i>
   </separator>
   <separator name="electronic exchange-correlation" >
    <i type="logical" name="LASPH"> F  </i>
   </separator>
   <separator name="electronic convergence" >
    <i type="int" name="NELM">    60</i>
    <i type="int" name="NELMDL">    -5</i>
    <i type="int" name="NELMIN">     2</i>
    <i name="ENINI">    500.00000000</i>
    <separator name="electronic convergence detail" >
     <i type="logical" name="LDIAG"> T  </i>
     <i type="logical" name="LSUBROT"> F  </i>
     <i name="WEIMIN">      0.00000000</i>
     <i name="EBREAK">      0.00000000</i>
     <i name="DEPER">      0.30000000</i>
     <i type="int" name="NRMM">     4</i>
     <i name="TIME">      0.40000000</i>
    </separator>
   </separator>
   <separator name="electronic mixer" >
    <i name="AMIX">      0.40000000</i>
    <i name="BMIX">      1.00000000</i>
    <i name="AMIN">      0.10000000</i>
    <i name="AMIX_MAG">      1.60000000</i>
    <i name="BMIX_MAG">      1.00000000</i>
    <separator name="electronic mixer details" >
     <i type="int" name="IMIX">     4</i>
     <i type="logical" name="MIXFIRST"> F  </i>
     <i type="int" name="MAXMIX">   -45</i>
     <i name="WC">    100.00000000</i>
     <i type="int" name="INIMIX">     1</i>
     <i type="int" name="MIXPRE">     1</i>
     <i type="int" name="MREMOVE">     5</i>
    </separator>
   </separator>
   <separator name="electronic dipolcorrection" >
    <i type="logical" name="LDIPOL"> F  </i>
    <i type="logical" name="LMONO"> F  </i>
    <i type="int" name="IDIPOL">     0</i>
    <i name="EPSILON">      1.00000000</i>
    <v name="DIPOL">   -100.00000000   -100.00000000   -100.00000000</v>
    <i name="EFIELD">      0.00000000</i>
    <i type="logical" name="LVACPOTAV"> F  </i>
   </separator>
  </separator>
  <separator name="grids" >
   <i type="int" name="NGX">   160</i>
   <i type="int" name="NGY">   160</i>
   <i type="int" name="NGZ">   196</i>
   <i type="int" name="NGXF">   320</i>
   <i type="int" name="NGYF">   320</i>
   <i type="int" name="NGZF">   392</i>
   <i type="logical" name="ADDGRID"> T  </i>
  </separator>
  <separator name="ionic" >
   <i type="int" name="NSW">     0</i>
   <i type="int" name="IBRION">    -1</i>
   <i type="int" name="MDALGO">     0</i>
   <i type="int" name="ISIF">     2</i>
   <i name="PSTRESS">      0.00000000</i>
   <i name="EDIFFG">      0.00000010</i>
   <i type="int" name="NFREE">     1</i>
   <i name="POTIM">      0.02000000</i>
   <i name="SMASS">     -3.00000000</i>
   <i name="SCALEE">      1.00000000</i>
  </separator>
  <separator name="ionic md" >
   <i name="TEBEG">      0.00010000</i>
   <i name="TEEND">      0.00010000</i>
   <i type="int" name="NBLOCK">     1</i>
   <i type="int" name="KBLOCK">     1</i>
   <i type="int" name="NPACO">   256</i>
   <i name="APACO">     10.00000000</i>
  </separator>
  <separator name="symmetry" >
   <i type="int" name="ISYM">     2</i>
   <i name="SYMPREC">      0.00001000</i>
  </separator>
  <separator name="dos" >
   <i type="int" name="LORBIT">     0</i>
   <v name="RWIGS">     -1.00000000     -1.00000000</v>
   <i type="int" name="NEDOS">   301</i>
   <i name="EMIN">     10.00000000</i>
   <i name="EMAX">    -10.00000000</i>
   <i name="EFERMI">      0.00000000</i>
  </separator>
  <separator name="writing" >
   <i type="int" name="NWRITE">     2</i>
   <i type="logical" name="LWAVE"> F  </i>
   <i type="logical" name="LDOWNSAMPLE"> F  </i>
   <i type="logical" name="LCHARG"> F  </i>
   <i type="logical" name="LPARD"> F  </i>
   <i type="logical" name="LVTOT"> F  </i>
   <i type="logical" name="LVHAR"> F  </i>
   <i type="logical" name="LELF"> F  </i>
   <i type="logical" name="LOPTICS"> F  </i>
   <v name="STM">      0.00000000      0.00000000      0.00000000      0.00000000      0.00000000      0.00000000      0.00000000</v>
  </separator>
  <separator name="performance" >
   <i type="int" name="NPAR">    11</i>
   <i type="int" name="NSIM">     4</i>
   <i type="int" name="NBLK">    -1</i>
   <i type="logical" name="LPLANE"> T  </i>
   <i type="logical" name="LSCALAPACK"> T  </i>
   <i type="logical" name="LSCAAWARE"> F  </i>
   <i type="logical" name="LSCALU"> F  </i>
   <i type="logical" name="LASYNC"> F  </i>
   <i type="logical" name="LORBITALREAL"> F  </i>
  </separator>
  <separator name="miscellaneous" >
   <i type="int" name="IDIOT">     3</i>
   <i type="int" name="PHON_NSTRUCT">    -1</i>
   <i type="logical" name="LMUSIC"> F  </i>
   <v name="POMASS">    208.98000000    121.75000000</v>
   <v name="DARWINR">      0.00000000      0.00000000</v>
   <v name="DARWINV">      1.00000000      1.00000000</v>
   <i type="logical" name="LCORR"> T  </i>
  </separator>
  <i type="logical" name="GGA_COMPAT"> T  </i>
  <i type="logical" name="LBERRY"> F  </i>
  <i type="int" name="ICORELEVEL">     0</i>
  <i type="logical" name="LDAU"> F  </i>
  <i type="int" name="I_CONSTRAINED_M">     0</i>
  <separator name="electronic exchange-correlation" >
   <i type="string" name="GGA    ">PE</i>
   <i type="string" name="XC_C">1</i>
   <i type="int" name="VOSKOWN">     0</i>
   <i type="logical" name="LHFCALC"> F  </i>
   <i type="string" name="PRECFOCK"></i>
   <i type="logical" name="LSYMGRAD"> F  </i>
   <i type="logical" name="LHFONE"> F  </i>
   <i type="logical" name="LRHFCALC"> F  </i>
   <i type="logical" name="LTHOMAS"> F  </i>
   <i type="logical" name="LMODELHF"> F  </i>
   <i type="logical" name="LFOCKACE"> F  </i>
   <i name="ENCUT4O">     -1.00000000</i>
   <i type="int" name="EXXOEP">     0</i>
   <i type="int" name="FOURORBIT">     0</i>
   <i name="AEXX">      0.00000000</i>
   <i name="HFALPHA">      0.00000000</i>
   <i name="MCALPHA">      0.00000000</i>
   <i name="ALDAX">      1.00000000</i>
   <i name="AGGAX">      1.00000000</i>
   <i name="AMGGAX">      1.00000000</i>
   <i name="ALDAC">      1.00000000</i>
   <i name="AGGAC">      1.00000000</i>
   <i name="AMGGAC">      1.00000000</i>
   <i type="int" name="NKREDX">     1</i>
   <i type="int" name="NKREDY">     1</i>
   <i type="int" name="NKREDZ">     1</i>
   <i type="logical" name="SHIFTRED"> F  </i>
   <i type="logical" name="ODDONLY"> F  </i>
   <i type="logical" name="EVENONLY"> F  </i>
   <i type="int" name="LMAXFOCK">     0</i>
   <i type="int" name="NMAXFOCKAE">     0</i>
   <i type="logical" name="LFOCKAEDFT"> F  </i>
   <i name="HFSCREEN">      0.00000000</i>
   <i name="HFSCREENC">      0.00000000</i>
   <i type="int" name="NBANDSGWLOW">     0</i>
  </separator>
  <separator name="vdW DFT" >
   <i type="logical" name="LUSE_VDW"> F  </i>
   <i type="int" name="IVDW_NL">    -1</i>
   <i type="logical" name="LSPIN_VDW"> F  </i>
   <i name="ZAB_VDW">     -0.84910000</i>
   <i name="GAMMA_VDW">      1.39626340</i>
   <i name="ALPHA_VDW">      0.00000000</i>
   <i name="PARAM1">      0.12340000</i>
   <i name="PARAM2">      1.00000000</i>
   <i name="BPARAM">      6.30000000</i>
   <i name="CPARAM">      0.00930000</i>
  </separator>
  <separator name="model GW" >
   <i type="int" name="MODEL_GW">     0</i>
   <i name="MODEL_EPS0">    125.74688864</i>
   <i name="MODEL_ALPHA">      1.00000000</i>
  </separator>
  <separator name="linear response parameters" >
   <i type="logical" name="LEPSILON"> F  </i>
   <i type="logical" name="LRPA"> F  </i>
   <i type="logical" name="LNABLA"> F  </i>
   <i type="logical" name="LVEL"> F  </i>
   <i name="CSHIFT">      0.10000000</i>
   <i name="OMEGAMAX">     -1.00000000</i>
   <i name="DEG_THRESHOLD">      0.00200000</i>
   <i name="RTIME">     -0.10000000</i>
   <i name="WPLASMAI">      0.00000000</i>
   <v name="DFIELD">      0.00000000      0.00000000      0.00000000</v>
   <v name="WPLASMA">      0.00000000      0.00000000      0.00000000      0.00000000      0.00000000      0.00000000      0.00000000      0.00000000      0.00000000</v>
  </separator>
  <separator name="orbital magnetization" >
   <i type="logical" name="NUCIND"> F  </i>
   <v name="MAGPOS">      0.00000000      0.00000000      0.00000000</v>
   <i type="logical" name="LNICSALL"> T  </i>
   <i type="logical" name="ORBITALMAG"> F  </i>
   <i type="logical" name="LMAGBLOCH"> F  </i>
   <i type="logical" name="LCHIMAG"> F  </i>
   <i type="logical" name="LGAUGE"> T  </i>
   <i type="int" name="MAGATOM">     0</i>
   <v name="MAGDIPOL">      0.00000000      0.00000000      0.00000000</v>
   <v name="AVECCONST">      0.00000000      0.00000000      0.00000000</v>
  </separator>
  <separator name="response functions" >
   <i type="logical" name="LALL_IN_ONE"> F  </i>
   <i type="int" name="IALL_IN_ONE">    -1</i>
   <i type="int" name="NBANDS_WAVE">    -1</i>
   <i type="logical" name="LFINITE_TEMPERATURE"> F  </i>
   <i type="logical" name="LADDER"> F  </i>
   <i type="logical" name="LRPAFORCE"> F  </i>
   <i type="logical" name="LFXC"> F  </i>
   <i type="logical" name="LHARTREE"> T  </i>
   <i type="int" name="IBSE">     0</i>
   <v type="int" name="KPOINT">    -1     0     0     0</v>
   <i type="logical" name="LTCTC"> F  </i>
   <i type="logical" name="LTCTE"> F  </i>
   <i type="logical" name="LTETE"> F  </i>
   <i type="logical" name="LTRIPLET"> F  </i>
   <i type="logical" name="LFXCEPS"> F  </i>
   <i type="logical" name="LFXHEG"> F  </i>
   <i type="int" name="NATURALO">     2</i>
   <i type="logical" name="LHOLEGF"> F  </i>
   <i type="logical" name="L2ORDER"> F  </i>
   <i type="logical" name="LDMP1"> F  </i>
   <i type="logical" name="LMP2LT"> F  </i>
   <i type="logical" name="LSMP2LT"> F  </i>
   <i type="logical" name="LGWLF"> F  </i>
   <i name="ENCUTGW">     -1.60000002</i>
   <i name="ENCUTGWSOFT">     -1.60000002</i>
   <i name="ENCUTLF">     -1.00000000</i>
   <i type="logical" name="ESF_SPLINES"> F  </i>
   <i name="ESF_CONV">      0.01000000</i>
   <i type="int" name="ESF_NINTER">    15</i>
   <i type="int" name="LMAXMP2">    -1</i>
   <i name="SCISSOR">      0.00000000</i>
   <i type="int" name="NOMEGA">     0</i>
   <i type="int" name="NOMEGAR">     0</i>
   <i type="int" name="NBANDSGW">    -1</i>
   <i type="int" name="NBANDSO">    -1</i>
   <i type="int" name="NBANDSV">    -1</i>
   <i type="int" name="NELMGW">     1</i>
   <i type="int" name="NELMHF">     1</i>
   <i type="int" name="DIM">     3</i>
   <i type="int" name="IESPILON">     4</i>
   <i type="int" name="ANTIRES">     0</i>
   <i name="OMEGAMAX">    -30.00000000</i>
   <i name="OMEGAMIN">    -30.00000000</i>
   <i name="OMEGATL">   -200.00000000</i>
   <i type="int" name="OMEGAGRID">     0</i>
   <i name="CSHIFT">     -0.10000000</i>
   <i type="logical" name="LSELFENERGY"> F  </i>
   <i type="logical" name="LSPECTRAL"> F  </i>
   <i type="logical" name="LSPECTRALGW"> F  </i>
   <i type="logical" name="LSINGLES"> F  </i>
   <i type="logical" name="LFERMIGW"> F  </i>
   <i type="logical" name="ODDONLYGW"> F  </i>
   <i type="logical" name="EVENONLYGW"> F  </i>
   <i type="int" name="NKREDLFX">     1</i>
   <i type="int" name="NKREDLFY">     1</i>
   <i type="int" name="NKREDLFZ">     1</i>
   <i type="int" name="MAXMEM">  2800</i>
   <i type="int" name="TELESCOPE">     0</i>
   <i type="int" name="NTAUPAR">    -1</i>
   <i type="int" name="NOMEGAPAR">    -1</i>
   <i name="DAMP_NEWTON">      0.80000001</i>
   <i name="LAMBDA">      1.00000000</i>
  </separator>
  <separator name="External order field" >
   <i name="OFIELD_KAPPA">      0.00000000</i>
   <v name="OFIELD_K">      0.00000000      0.00000000      0.00000000</v>
   <i name="OFIELD_Q6_NEAR">      0.00000000</i>
   <i name="OFIELD_Q6_FAR">      0.00000000</i>
   <i name="OFIELD_A">      0.00000000</i>
  </separator>
  <separator name="optional k-points parameters" >
   <i type="int" name="KPOINTS_OPT_MODE">     1</i>
   <i type="logical" name="LKPOINTS_OPT"> F  </i>
  </separator>
 </parameters>
 <atominfo>
  <atoms>      50 </atoms>
  <types>       2 </types>
  <array name="atoms" >
   <dimension dim="1">ion</dimension>
   <field type="string">element</field>
   <field type="int">atomtype</field>
   <set>
    <rc><c>Bi</c><c>   1</c></rc>
    <rc><c>Bi</c><c>   1</c></rc>
    <rc><c>Bi</c><c>   1</c></rc>
    <rc><c>Bi</c><c>   1</c></rc>
    <rc><c>Bi</c><c>   1</c></rc>
    <rc><c>Bi</c><c>   1</c></rc>
    <rc><c>Bi</c><c>   1</c></rc>
    <rc><c>Bi</c><c>   1</c></rc>
    <rc><c>Bi</c><c>   1</c></rc>
    <rc><c>Bi</c><c>   1</c></rc>
    <rc><c>Bi</c><c>   1</c></rc>
    <rc><c>Bi</c><c>   1</c></rc>
    <rc><c>Bi</c><c>   1</c></rc>
    <rc><c>Bi</c><c>   1</c></rc>
    <rc><c>Bi</c><c>   1</c></rc>
    <rc><c>Bi</c><c>   1</c></rc>
    <rc><c>Bi</c><c>   1</c></rc>
    <rc><c>Bi</c><c>   1</c></rc>
    <rc><c>Bi</c><c>   1</c></rc>
    <rc><c>Bi</c><c>   1</c></rc>
    <rc><c>Bi</c><c>   1</c></rc>
    <rc><c>Bi</c><c>   1</c></rc>
    <rc><c>Bi</c><c>   1</c></rc>
    <rc><c>Bi</c><c>   1</c></rc>
    <rc><c>Bi</c><c>   1</c></rc>
    <rc><c>Sb</c><c>   2</c></rc>
    <rc><c>Sb</c><c>   2</c></rc>
    <rc><c>Sb</c><c>   2</c></rc>
    <rc><c>Sb</c><c>   2</c></rc>
    <rc><c>Sb</c><c>   2</c></rc>
    <rc><c>Sb</c><c>   2</c></rc>
    <rc><c>Sb</c><c>   2</c></rc>
    <rc><c>Sb</c><c>   2</c></rc>
    <rc><c>Sb</c><c>   2</c></rc>
    <rc><c>Sb</c><c>   2</c></rc>
    <rc><c>Sb</c><c>   2</c></rc>
    <rc><c>Sb</c><c>   2</c></rc>
    <rc><c>Sb</c><c>   2</c></rc>
    <rc><c>Sb</c><c>   2</c></rc>
    <rc><c>Sb</c><c>   2</c></rc>
    <rc><c>Sb</c><c>   2</c></rc>
    <rc><c>Sb</c><c>   2</c></rc>
    <rc><c>Sb</c><c>   2</c></rc>
    <rc><c>Sb</c><c>   2</c></rc>
    <rc><c>Sb</c><c>   2</c></rc>
    <rc><c>Sb</c><c>   2</c></rc>
    <rc><c>Sb</c><c>   2</c></rc>
    <rc><c>Sb</c><c>   2</c></rc>
    <rc><c>Sb</c><c>   2</c></rc>
    <rc><c>Sb</c><c>   2</c></rc>
   </set>
  </array>
  <array name="atomtypes" >
   <dimension dim="1">type</dimension>
   <field type="int">atomspertype</field>
   <field type="string">element</field>
   <field>mass</field>
   <field>valence</field>
   <field type="string">pseudopotential</field>
   <set>
    <rc><c>  25</c><c>Bi</c><c>    208.98000000</c><c>     15.00000000</c><c> PAW_PBE Bi_d 06Sep2000                 </c></rc>
    <rc><c>  25</c><c>Sb</c><c>    121.75000000</c><c>      5.00000000</c><c> PAW_PBE Sb 06Sep2000                   </c></rc>
   </set>
  </array>
 </atominfo>
 <structure name="initialpos" >
  <crystal>
   <varray name="basis" >
    <v>      21.32465726      -0.00000000       0.00000000 </v>
    <v>     -10.66232863      18.46769492       0.00000000 </v>
    <v>       0.00000000       0.00000000      26.60855257 </v>
   </varray>
   <i name="volume">  10478.90738675 </i>
   <varray name="rec_basis" >
    <v>       0.04689407       0.02707430      -0.00000000 </v>
    <v>       0.00000000       0.05414861      -0.00000000 </v>
    <v>       0.00000000       0.00000000       0.03758190 </v>
   </varray>
  </crystal>
  <varray name="positions" >
   <v>       0.13333333       0.06666667       0.53165059 </v>
   <v>       0.33333333       0.06666667       0.53165059 </v>
   <v>       0.53333333       0.06666667       0.53165059 </v>
   <v>       0.73333333       0.06666667       0.53165059 </v>
   <v>       0.93333333       0.06666667       0.53165059 </v>
   <v>       0.13333333       0.26666667       0.53165059 </v>
   <v>       0.33333333       0.26666667       0.53165059 </v>
   <v>       0.53333333       0.26666667       0.53165059 </v>
   <v>       0.73333333       0.26666667       0.53165059 </v>
   <v>       0.93333333       0.26666667       0.53165059 </v>
   <v>       0.13333333       0.46666667       0.53165059 </v>
   <v>       0.33333333       0.46666667       0.53165059 </v>
   <v>       0.53333333       0.46666667       0.53165059 </v>
   <v>       0.73333333       0.46666667       0.53165059 </v>
   <v>       0.93333333       0.46666667       0.53165059 </v>
   <v>       0.13333333       0.66666667       0.53165059 </v>
   <v>       0.33333333       0.66666667       0.53165059 </v>
   <v>       0.53333333       0.66666667       0.53165059 </v>
   <v>       0.73333333       0.66666667       0.53165059 </v>
   <v>       0.93333333       0.66666667       0.53165059 </v>
   <v>       0.13333333       0.86666667       0.53165059 </v>
   <v>       0.33333333       0.86666667       0.53165059 </v>
   <v>       0.53333333       0.86666667       0.53165059 </v>
   <v>       0.73333333       0.86666667       0.53165059 </v>
   <v>       0.93333333       0.86666667       0.53165059 </v>
   <v>       0.06637340       0.13333333       0.46805615 </v>
   <v>       0.26666667       0.13333333       0.46834941 </v>
   <v>       0.46666667       0.13333333       0.46834941 </v>
   <v>       0.66666667       0.13333333       0.46834941 </v>
   <v>       0.86666667       0.13333333       0.46834941 </v>
   <v>       0.06666667       0.33333333       0.46834941 </v>
   <v>       0.26666667       0.33333333       0.46834941 </v>
   <v>       0.46666667       0.33333333       0.46834941 </v>
   <v>       0.66666667       0.33333333       0.46834941 </v>
   <v>       0.86666667       0.33333333       0.46834941 </v>
   <v>       0.06666667       0.53333333       0.46834941 </v>
   <v>       0.26666667       0.53333333       0.46834941 </v>
   <v>       0.46666667       0.53333333       0.46834941 </v>
   <v>       0.66666667       0.53333333       0.46834941 </v>
   <v>       0.86666667       0.53333333       0.46834941 </v>
   <v>       0.06666667       0.73333333       0.46834941 </v>
   <v>       0.26666667       0.73333333       0.46834941 </v>
   <v>       0.46666667       0.73333333       0.46834941 </v>
   <v>       0.66666667       0.73333333       0.46834941 </v>
   <v>       0.86666667       0.73333333       0.46834941 </v>
   <v>       0.06666667       0.93333333       0.46834941 </v>
   <v>       0.26666667       0.93333333       0.46834941 </v>
   <v>       0.46666667       0.93333333       0.46834941 </v>
   <v>       0.66666667       0.93333333       0.46834941 </v>
   <v>       0.86666667       0.93333333       0.46834941 </v>
  </varray>
 </structure>
 <calculation>
  <scstep>
   <time name="dav">  128.27  129.52</time>
   <time name="total">  129.25  130.51</time>
   <energy>
    <i name="alphaZ">    121.62916447 </i>
    <i name="ewald">  64943.13926423 </i>
    <i name="hartreedc">-111652.75868368 </i>
    <i name="XCdc">     42.39722418 </i>
    <i name="pawpsdc">  37764.27714653 </i>
    <i name="pawaedc"> -35668.03311435 </i>
    <i name="eentropy">     -0.05667890 </i>
    <i name="bandstr">  -4220.07470251 </i>
    <i name="atom">  52710.29375111 </i>
    <i name="e_fr_energy">   4040.81337109 </i>
    <i name="e_wo_entrp">   4040.87004998 </i>
    <i name="e_0_energy">   4040.84171053 </i>
   </energy>
  </scstep>
  <scstep>
   <time name="dav">  129.98  131.25</time>
   <time name="total">  129.98  131.25</time>
   <energy>
    <i name="e_fr_energy">    211.58249009 </i>
    <i name="e_wo_entrp">    211.58249009 </i>
    <i name="e_0_energy">    211.58249009 </i>
   </energy>
  </scstep>
  <scstep>
   <time name="dav">  118.46  119.62</time>
   <time name="total">  118.46  119.62</time>
   <energy>
    <i name="e_fr_energy">   -183.91916407 </i>
    <i name="e_wo_entrp">   -183.91916407 </i>
    <i name="e_0_energy">   -183.91916407 </i>
   </energy>
  </scstep>
  <scstep>
   <time name="dav">  116.26  117.41</time>
   <time name="total">  116.27  117.41</time>
   <energy>
    <i name="e_fr_energy">   -199.76818479 </i>
    <i name="e_wo_entrp">   -199.76818479 </i>
    <i name="e_0_energy">   -199.76818479 </i>
   </energy>
  </scstep>
  <scstep>
   <time name="dav">  141.04  142.44</time>
   <time name="total">  146.61  148.05</time>
   <energy>
    <i name="e_fr_energy">   -200.67287260 </i>
    <i name="e_wo_entrp">   -200.67287260 </i>
    <i name="e_0_energy">   -200.67287260 </i>
   </energy>
  </scstep>
  <scstep>
   <time name="dav">  116.46  117.60</time>
   <time name="total">  123.00  124.18</time>
   <energy>
    <i name="e_fr_energy">   -199.17266563 </i>
    <i name="e_wo_entrp">   -199.17266563 </i>
    <i name="e_0_energy">   -199.17266563 </i>
   </energy>
  </scstep>
  <scstep>
   <time name="dav">  121.26  122.45</time>
   <time name="total">  127.79  129.03</time>
   <energy>
    <i name="e_fr_energy">   -198.86049500 </i>
    <i name="e_wo_entrp">   -198.86049500 </i>
    <i name="e_0_energy">   -198.86049500 </i>
   </energy>
  </scstep>
  <scstep>
   <time name="dav">  116.04  117.18</time>
   <time name="total">  122.59  123.77</time>
   <energy>
    <i name="e_fr_energy">   -198.73163617 </i>
    <i name="e_wo_entrp">   -198.73163617 </i>
    <i name="e_0_energy">   -198.73163617 </i>
   </energy>
  </scstep>
  <scstep>
   <time name="dav">  118.99  120.16</time>
   <time name="total">  125.50  128.88</time>
   <energy>
    <i name="e_fr_energy">   -198.72247640 </i>
    <i name="e_wo_entrp">   -198.72247640 </i>
    <i name="e_0_energy">   -198.72247640 </i>
   </energy>
  </scstep>
  <scstep>
   <time name="dav">  117.16  118.31</time>
   <time name="total">  123.68  124.88</time>
   <energy>
    <i name="e_fr_energy">   -198.71030963 </i>
    <i name="e_wo_entrp">   -198.71030963 </i>
    <i name="e_0_energy">   -198.71030963 </i>
   </energy>
  </scstep>
  <scstep>
   <time name="dav">  135.16  136.50</time>
   <time name="total">  141.70  143.07</time>
   <energy>
    <i name="e_fr_energy">   -198.71109483 </i>
    <i name="e_wo_entrp">   -198.71109483 </i>
    <i name="e_0_energy">   -198.71109483 </i>
   </energy>
  </scstep>
  <scstep>
   <time name="dav">  113.45  114.57</time>
   <time name="total">  119.97  121.13</time>
   <energy>
    <i name="e_fr_energy">   -198.71142607 </i>
    <i name="e_wo_entrp">   -198.71142607 </i>
    <i name="e_0_energy">   -198.71142607 </i>
   </energy>
  </scstep>
  <scstep>
   <time name="dav">  112.99  114.11</time>
   <time name="total">  119.53  120.68</time>
   <energy>
    <i name="e_fr_energy">   -198.71317979 </i>
    <i name="e_wo_entrp">   -198.71317979 </i>
    <i name="e_0_energy">   -198.71317979 </i>
   </energy>
  </scstep>
  <scstep>
   <time name="dav">  113.21  114.33</time>
   <time name="total">  119.74  120.90</time>
   <energy>
    <i name="e_fr_energy">   -198.71636818 </i>
    <i name="e_wo_entrp">   -198.71636818 </i>
    <i name="e_0_energy">   -198.71636818 </i>
   </energy>
  </scstep>
  <scstep>
   <time name="dav">  114.80  115.93</time>
   <time name="total">  121.36  122.53</time>
   <energy>
    <i name="e_fr_energy">   -198.71787089 </i>
    <i name="e_wo_entrp">   -198.71787089 </i>
    <i name="e_0_energy">   -198.71787089 </i>
   </energy>
  </scstep>
  <scstep>
   <time name="dav">  117.53  118.68</time>
   <time name="total">  124.07  125.27</time>
   <energy>
    <i name="e_fr_energy">   -198.71851446 </i>
    <i name="e_wo_entrp">   -198.71851446 </i>
    <i name="e_0_energy">   -198.71851446 </i>
   </energy>
  </scstep>
  <scstep>
   <time name="dav">  131.21  132.50</time>
   <time name="total">  137.75  139.08</time>
   <energy>
    <i name="e_fr_energy">   -198.71932445 </i>
    <i name="e_wo_entrp">   -198.71932445 </i>
    <i name="e_0_energy">   -198.71932445 </i>
   </energy>
  </scstep>
  <scstep>
   <time name="dav">  115.64  116.77</time>
   <time name="total">  122.19  123.37</time>
   <energy>
    <i name="e_fr_energy">   -198.71953946 </i>
    <i name="e_wo_entrp">   -198.71953946 </i>
    <i name="e_0_energy">   -198.71953946 </i>
   </energy>
  </scstep>
  <scstep>
   <time name="dav">  123.24  124.45</time>
   <time name="total">  129.77  131.02</time>
   <energy>
    <i name="e_fr_energy">   -198.71967581 </i>
    <i name="e_wo_entrp">   -198.71967581 </i>
    <i name="e_0_energy">   -198.71967581 </i>
   </energy>
  </scstep>
  <scstep>
   <time name="dav">  116.34  117.48</time>
   <time name="total">  122.86  124.04</time>
   <energy>
    <i name="e_fr_energy">   -198.71972648 </i>
    <i name="e_wo_entrp">   -198.71972648 </i>
    <i name="e_0_energy">   -198.71972648 </i>
   </energy>
  </scstep>
  <scstep>
   <time name="dav">   95.26   96.19</time>
   <time name="total">  101.80  102.77</time>
   <energy>
    <i name="e_fr_energy">   -198.71977236 </i>
    <i name="e_wo_entrp">   -198.71977236 </i>
    <i name="e_0_energy">   -198.71977236 </i>
   </energy>
  </scstep>
  <scstep>
   <time name="dav">   94.14   95.07</time>
   <time name="total">  100.67  101.63</time>
   <energy>
    <i name="e_fr_energy">   -198.71978168 </i>
    <i name="e_wo_entrp">   -198.71978168 </i>
    <i name="e_0_energy">   -198.71978168 </i>
   </energy>
  </scstep>
  <scstep>
   <time name="dav">   89.91   90.80</time>
   <time name="total">   96.45   97.38</time>
   <energy>
    <i name="e_fr_energy">   -198.71978633 </i>
    <i name="e_wo_entrp">   -198.71978633 </i>
    <i name="e_0_energy">   -198.71978633 </i>
   </energy>
  </scstep>
  <scstep>
   <time name="dav">   88.87   89.75</time>
   <time name="total">   95.41   96.33</time>
   <energy>
    <i name="e_fr_energy">   -198.71978785 </i>
    <i name="e_wo_entrp">   -198.71978785 </i>
    <i name="e_0_energy">   -198.71978785 </i>
   </energy>
  </scstep>
  <scstep>
   <time name="dav">   85.51   86.35</time>
   <time name="total">   92.05   92.93</time>
   <energy>
    <i name="e_fr_energy">   -198.71978844 </i>
    <i name="e_wo_entrp">   -198.71978844 </i>
    <i name="e_0_energy">   -198.71978844 </i>
   </energy>
  </scstep>
  <scstep>
   <time name="dav">   86.85   87.70</time>
   <time name="total">   93.40   94.29</time>
   <energy>
    <i name="e_fr_energy">   -198.71978869 </i>
    <i name="e_wo_entrp">   -198.71978869 </i>
    <i name="e_0_energy">   -198.71978869 </i>
   </energy>
  </scstep>
  <scstep>
   <time name="dav">   85.09   85.92</time>
   <time name="total">   91.62   92.50</time>
   <energy>
    <i name="e_fr_energy">   -198.71978880 </i>
    <i name="e_wo_entrp">   -198.71978880 </i>
    <i name="e_0_energy">   -198.71978880 </i>
   </energy>
  </scstep>
  <scstep>
   <time name="dav">   83.00   83.81</time>
   <time name="total">   89.54   90.39</time>
   <energy>
    <i name="e_fr_energy">   -198.71978885 </i>
    <i name="e_wo_entrp">   -198.71978885 </i>
    <i name="e_0_energy">   -198.71978885 </i>
   </energy>
  </scstep>
  <scstep>
   <time name="dav">   75.49   76.23</time>
   <time name="total">   82.02   82.80</time>
   <energy>
    <i name="e_fr_energy">   -198.71978886 </i>
    <i name="e_wo_entrp">   -198.71978886 </i>
    <i name="e_0_energy">   -198.71978886 </i>
   </energy>
  </scstep>
  <scstep>
   <time name="dav">   73.80   74.52</time>
   <time name="total">   74.75   75.48</time>
   <energy>
    <i name="alphaZ">    121.62916447 </i>
    <i name="ewald">  64943.13926423 </i>
    <i name="hartreedc">-111900.60323874 </i>
    <i name="XCdc">     48.32825789 </i>
    <i name="pawpsdc">  38326.71701919 </i>
    <i name="pawaedc"> -36250.54073384 </i>
    <i name="eentropy">     -0.00000000 </i>
    <i name="bandstr">  -8197.68327317 </i>
    <i name="atom">  52710.29375111 </i>
    <i name="e_fr_energy">   -198.71978886 </i>
    <i name="e_wo_entrp">   -198.71978886 </i>
    <i name="e_0_energy">   -198.71978886 </i>
   </energy>
  </scstep>
  <structure>
   <crystal>
    <varray name="basis" >
     <v>      21.32465726      -0.00000000       0.00000000 </v>
     <v>     -10.66232863      18.46769492       0.00000000 </v>
     <v>       0.00000000       0.00000000      26.60855257 </v>
    </varray>
    <i name="volume">  10478.90738675 </i>
    <varray name="rec_basis" >
     <v>       0.04689407       0.02707430      -0.00000000 </v>
     <v>       0.00000000       0.05414861      -0.00000000 </v>
     <v>       0.00000000       0.00000000       0.03758190 </v>
    </varray>
   </crystal>
   <varray name="positions" >
    <v>       0.13333333       0.06666667       0.53165059 </v>
    <v>       0.33333333       0.06666667       0.53165059 </v>
    <v>       0.53333333       0.06666667       0.53165059 </v>
    <v>       0.73333333       0.06666667       0.53165059 </v>
    <v>       0.93333333       0.06666667       0.53165059 </v>
    <v>       0.13333333       0.26666667       0.53165059 </v>
    <v>       0.33333333       0.26666667       0.53165059 </v>
    <v>       0.53333333       0.26666667       0.53165059 </v>
    <v>       0.73333333       0.26666667       0.53165059 </v>
    <v>       0.93333333       0.26666667       0.53165059 </v>
    <v>       0.13333333       0.46666667       0.53165059 </v>
    <v>       0.33333333       0.46666667       0.53165059 </v>
    <v>       0.53333333       0.46666667       0.53165059 </v>
    <v>       0.73333333       0.46666667       0.53165059 </v>
    <v>       0.93333333       0.46666667       0.53165059 </v>
    <v>       0.13333333       0.66666667       0.53165059 </v>
    <v>       0.33333333       0.66666667       0.53165059 </v>
    <v>       0.53333333       0.66666667       0.53165059 </v>
    <v>       0.73333333       0.66666667       0.53165059 </v>
    <v>       0.93333333       0.66666667       0.53165059 </v>
    <v>       0.13333333       0.86666667       0.53165059 </v>
    <v>       0.33333333       0.86666667       0.53165059 </v>
    <v>       0.53333333       0.86666667       0.53165059 </v>
    <v>       0.73333333       0.86666667       0.53165059 </v>
    <v>       0.93333333       0.86666667       0.53165059 </v>
    <v>       0.06637340       0.13333333       0.46805615 </v>
    <v>       0.26666667       0.13333333       0.46834941 </v>
    <v>       0.46666667       0.13333333       0.46834941 </v>
    <v>       0.66666667       0.13333333       0.46834941 </v>
    <v>       0.86666667       0.13333333       0.46834941 </v>
    <v>       0.06666667       0.33333333       0.46834941 </v>
    <v>       0.26666667       0.33333333       0.46834941 </v>
    <v>       0.46666667       0.33333333       0.46834941 </v>
    <v>       0.66666667       0.33333333       0.46834941 </v>
    <v>       0.86666667       0.33333333       0.46834941 </v>
    <v>       0.06666667       0.53333333       0.46834941 </v>
    <v>       0.26666667       0.53333333       0.46834941 </v>
    <v>       0.46666667       0.53333333       0.46834941 </v>
    <v>       0.66666667       0.53333333       0.46834941 </v>
    <v>       0.86666667       0.53333333       0.46834941 </v>
    <v>       0.06666667       0.73333333       0.46834941 </v>
    <v>       0.26666667       0.73333333       0.46834941 </v>
    <v>       0.46666667       0.73333333       0.46834941 </v>
    <v>       0.66666667       0.73333333       0.46834941 </v>
    <v>       0.86666667       0.73333333       0.46834941 </v>
    <v>       0.06666667       0.93333333       0.46834941 </v>
    <v>       0.26666667       0.93333333       0.46834941 </v>
    <v>       0.46666667       0.93333333       0.46834941 </v>
    <v>       0.66666667       0.93333333       0.46834941 </v>
    <v>       0.86666667       0.93333333       0.46834941 </v>
   </varray>
  </structure>
  <varray name="forces" >
   <v>      -0.02850403       0.01493297      -0.09738718 </v>
   <v>      -0.00002907      -0.00002285      -0.06606574 </v>
   <v>      -0.00008564       0.00020364      -0.06621401 </v>
   <v>      -0.00076158       0.00054030      -0.06678798 </v>
   <v>       0.00183239       0.00254980      -0.07252458 </v>
   <v>      -0.00261198      -0.01763282      -0.08506205 </v>
   <v>       0.00000324      -0.00004777      -0.06624763 </v>
   <v>       0.00002980      -0.00003955      -0.06601675 </v>
   <v>       0.00002428      -0.00004971      -0.06602047 </v>
   <v>       0.00012816      -0.00002311      -0.06618400 </v>
   <v>      -0.00081256       0.00036835      -0.06676793 </v>
   <v>      -0.00000003       0.00000474      -0.06608478 </v>
   <v>       0.00000929       0.00001234      -0.06603410 </v>
   <v>       0.00001163       0.00000000      -0.06601149 </v>
   <v>       0.00008434       0.00003747      -0.06600305 </v>
   <v>      -0.00031435      -0.00013192      -0.06635347 </v>
   <v>       0.00000986      -0.00002176      -0.06602154 </v>
   <v>       0.00003828      -0.00007148      -0.06607411 </v>
   <v>       0.00000319       0.00001171      -0.06603573 </v>
   <v>       0.00008362       0.00002837      -0.06600100 </v>
   <v>      -0.00004167      -0.00040441      -0.06640717 </v>
   <v>      -0.00001094       0.00001212      -0.06602535 </v>
   <v>       0.00002676       0.00000988      -0.06601757 </v>
   <v>       0.00004267      -0.00048508      -0.06644617 </v>
   <v>       0.00008706       0.00007290      -0.06621574 </v>
   <v>       0.03202393       0.00015104       0.11486736 </v>
   <v>      -0.00086527      -0.00110813       0.06754180 </v>
   <v>       0.00008323      -0.00009842       0.06623044 </v>
   <v>      -0.00014140      -0.00031015       0.06641216 </v>
   <v>      -0.00122971      -0.00116718       0.06784109 </v>
   <v>       0.00111046       0.00147977       0.06855089 </v>
   <v>      -0.00068099      -0.00003266       0.06683027 </v>
   <v>      -0.00001787       0.00003371       0.06604079 </v>
   <v>       0.00000758       0.00001446       0.06599714 </v>
   <v>      -0.00007321      -0.00000195       0.06598895 </v>
   <v>       0.00023108       0.00038461       0.06650829 </v>
   <v>      -0.00007746      -0.00003740       0.06601468 </v>
   <v>      -0.00000980       0.00001371       0.06613436 </v>
   <v>      -0.00000899       0.00000951       0.06599653 </v>
   <v>      -0.00003433      -0.00002423       0.06599754 </v>
   <v>       0.00034241      -0.00001978       0.06641725 </v>
   <v>      -0.00002132      -0.00001664       0.06598701 </v>
   <v>      -0.00002235       0.00001715       0.06600723 </v>
   <v>      -0.00012306       0.00002942       0.06622499 </v>
   <v>      -0.00007641      -0.00003189       0.06601457 </v>
   <v>       0.00128830       0.00111242       0.06840044 </v>
   <v>      -0.00007846       0.00000070       0.06599200 </v>
   <v>       0.00000743      -0.00000062       0.06599719 </v>
   <v>      -0.00001387       0.00003686       0.06603751 </v>
   <v>      -0.00086266      -0.00028847       0.06697911 </v>
  </varray>
  <varray name="stress" >
   <v>      -1.12526769       0.00322372      -0.00795812 </v>
   <v>       0.00322370      -1.12527385      -0.00003839 </v>
   <v>      -0.00795811      -0.00003838      -0.50202161 </v>
  </varray>
  <energy>
   <i name="e_fr_energy">   -198.71978886 </i>
   <i name="e_wo_entrp">   -198.71978886 </i>
   <i name="e_0_energy">   -198.71978886 </i>
  </energy>
  <time name="totalsc"> 3597.04 3633.94</time>
  <eigenvalues>
   <array>
    <dimension dim="1">band</dimension>
    <dimension dim="2">kpoint</dimension>
    <dimension dim="3">spin</dimension>
    <field>eigene</field>
    <field>occ</field>
    <set>
     <set comment="spin 1">
      <set comment="kpoint 1">
       <r>  -25.2691    1.0000 </r>
       <r>  -25.2691    1.0000 </r>
       <r>  -25.2691    1.0000 </r>
       <r>  -25.2689    1.0000 </r>
       <r>  -25.2689    1.0000 </r>
       <r>  -25.2688    1.0000 </r>
       <r>  -25.2655    1.0000 </r>
       <r>  -25.2654    1.0000 </r>
       <r>  -25.2654    1.0000 </r>
       <r>  -25.2653    1.0000 </r>
       <r>  -25.2653    1.0000 </r>
       <r>  -25.2653    1.0000 </r>
       <r>  -25.2650    1.0000 </r>
       <r>  -25.2650    1.0000 </r>
       <r>  -25.2650    1.0000 </r>
       <r>  -25.2650    1.0000 </r>
       <r>  -25.2650    1.0000 </r>
       <r>  -25.2649    1.0000 </r>
       <r>  -25.2649    1.0000 </r>
       <r>  -25.2649    1.0000 </r>
       <r>  -25.2648    1.0000 </r>
       <r>  -25.2648    1.0000 </r>
       <r>  -25.2648    1.0000 </r>
       <r>  -25.2647    1.0000 </r>
       <r>  -25.2630    1.0000 </r>
       <r>  -25.2630    1.0000 </r>
       <r>  -25.2569    1.0000 </r>
       <r>  -25.2568    1.0000 </r>
       <r>  -25.2567    1.0000 </r>
       <r>  -25.2567    1.0000 </r>
       <r>  -25.2567    1.0000 </r>
       <r>  -25.2566    1.0000 </r>
       <r>  -25.2517    1.0000 </r>
       <r>  -25.2517    1.0000 </r>
       <r>  -25.2517    1.0000 </r>
       <r>  -25.2516    1.0000 </r>
       <r>  -25.2516    1.0000 </r>
       <r>  -25.2515    1.0000 </r>
       <r>  -25.2495    1.0000 </r>
       <r>  -25.2494    1.0000 </r>
       <r>  -25.2493    1.0000 </r>
       <r>  -25.2492    1.0000 </r>
       <r>  -25.2492    1.0000 </r>
       <r>  -25.2492    1.0000 </r>
       <r>  -25.2473    1.0000 </r>
       <r>  -25.2472    1.0000 </r>
       <r>  -25.2472    1.0000 </r>
       <r>  -25.2471    1.0000 </r>
       <r>  -25.2470    1.0000 </r>
       <r>  -25.2470    1.0000 </r>
       <r>  -25.2316    1.0000 </r>
       <r>  -25.2316    1.0000 </r>
       <r>  -25.2315    1.0000 </r>
       <r>  -25.2312    1.0000 </r>
       <r>  -25.2312    1.0000 </r>
       <r>  -25.2311    1.0000 </r>
       <r>  -25.2304    1.0000 </r>
       <r>  -25.2304    1.0000 </r>
       <r>  -25.2303    1.0000 </r>
       <r>  -25.2302    1.0000 </r>
       <r>  -25.2302    1.0000 </r>
       <r>  -25.2301    1.0000 </r>
       <r>  -25.2292    1.0000 </r>
       <r>  -25.2292    1.0000 </r>
       <r>  -25.2291    1.0000 </r>
       <r>  -25.2291    1.0000 </r>
       <r>  -25.2291    1.0000 </r>
       <r>  -25.2290    1.0000 </r>
       <r>  -25.2263    1.0000 </r>
       <r>  -25.2262    1.0000 </r>
       <r>  -25.2260    1.0000 </r>
       <r>  -25.2260    1.0000 </r>
       <r>  -25.2260    1.0000 </r>
       <r>  -25.2259    1.0000 </r>
       <r>  -25.2256    1.0000 </r>
       <r>  -25.2253    1.0000 </r>
       <r>  -25.2253    1.0000 </r>
       <r>  -25.2251    1.0000 </r>
       <r>  -25.2251    1.0000 </r>
       <r>  -25.2251    1.0000 </r>
       <r>  -25.2244    1.0000 </r>
       <r>  -25.2244    1.0000 </r>
       <r>  -25.2243    1.0000 </r>
       <r>  -25.2242    1.0000 </r>
       <r>  -25.2242    1.0000 </r>
       <r>  -25.2242    1.0000 </r>
       <r>  -25.2234    1.0000 </r>
       <r>  -25.2233    1.0000 </r>
       <r>  -25.2232    1.0000 </r>
       <r>  -25.2232    1.0000 </r>
       <r>  -25.2231    1.0000 </r>
       <r>  -25.2230    1.0000 </r>
       <r>  -25.2230    1.0000 </r>
       <r>  -25.2229    1.0000 </r>
       <r>  -25.2229    1.0000 </r>
       <r>  -25.2229    1.0000 </r>
       <r>  -25.2228    1.0000 </r>
       <r>  -25.2228    1.0000 </r>
       <r>  -25.2225    1.0000 </r>
       <r>  -25.2224    1.0000 </r>
       <r>  -25.2132    1.0000 </r>
       <r>  -25.2099    1.0000 </r>
       <r>  -25.2094    1.0000 </r>
       <r>  -25.2094    1.0000 </r>
       <r>  -25.2093    1.0000 </r>
       <r>  -25.2092    1.0000 </r>
       <r>  -25.2092    1.0000 </r>
       <r>  -25.2048    1.0000 </r>
       <r>  -25.2046    1.0000 </r>
       <r>  -25.2044    1.0000 </r>
       <r>  -25.2043    1.0000 </r>
       <r>  -25.2043    1.0000 </r>
       <r>  -25.2042    1.0000 </r>
       <r>  -25.2030    1.0000 </r>
       <r>  -25.2030    1.0000 </r>
       <r>  -25.2028    1.0000 </r>
       <r>  -25.2028    1.0000 </r>
       <r>  -25.2027    1.0000 </r>
       <r>  -25.2026    1.0000 </r>
       <r>  -25.2018    1.0000 </r>
       <r>  -25.2017    1.0000 </r>
       <r>  -25.2015    1.0000 </r>
       <r>  -25.2015    1.0000 </r>
       <r>  -25.2014    1.0000 </r>
       <r>  -25.2014    1.0000 </r>
       <r>  -14.6091    1.0000 </r>
       <r>  -14.2610    1.0000 </r>
       <r>  -14.2608    1.0000 </r>
       <r>  -14.2608    1.0000 </r>
       <r>  -14.2607    1.0000 </r>
       <r>  -14.2606    1.0000 </r>
       <r>  -14.2578    1.0000 </r>
       <r>  -13.6448    1.0000 </r>
       <r>  -13.6445    1.0000 </r>
       <r>  -13.6444    1.0000 </r>
       <r>  -13.6444    1.0000 </r>
       <r>  -13.6440    1.0000 </r>
       <r>  -13.6420    1.0000 </r>
       <r>  -13.4295    1.0000 </r>
       <r>  -13.4292    1.0000 </r>
       <r>  -13.4292    1.0000 </r>
       <r>  -13.4291    1.0000 </r>
       <r>  -13.4287    1.0000 </r>
       <r>  -13.4270    1.0000 </r>
       <r>  -13.0358    1.0000 </r>
       <r>  -13.0355    1.0000 </r>
       <r>  -13.0354    1.0000 </r>
       <r>  -13.0354    1.0000 </r>
       <r>  -13.0350    1.0000 </r>
       <r>  -13.0341    1.0000 </r>
       <r>  -11.0814    1.0000 </r>
       <r>  -11.0811    1.0000 </r>
       <r>  -11.0811    1.0000 </r>
       <r>  -11.0811    1.0000 </r>
       <r>  -11.0810    1.0000 </r>
       <r>  -11.0796    1.0000 </r>
       <r>  -10.7532    1.0000 </r>
       <r>  -10.7523    1.0000 </r>
       <r>  -10.7522    1.0000 </r>
       <r>  -10.7522    1.0000 </r>
       <r>  -10.7520    1.0000 </r>
       <r>  -10.7513    1.0000 </r>
       <r>  -10.5050    1.0000 </r>
       <r>  -10.5037    1.0000 </r>
       <r>  -10.5037    1.0000 </r>
       <r>  -10.5036    1.0000 </r>
       <r>  -10.5035    1.0000 </r>
       <r>  -10.5032    1.0000 </r>
       <r>  -10.0640    1.0000 </r>
       <r>  -10.0608    1.0000 </r>
       <r>  -10.0608    1.0000 </r>
       <r>  -10.0607    1.0000 </r>
       <r>  -10.0606    1.0000 </r>
       <r>  -10.0606    1.0000 </r>
       <r>   -9.9365    1.0000 </r>
       <r>   -5.8731    1.0000 </r>
       <r>   -5.8729    1.0000 </r>
       <r>   -5.8728    1.0000 </r>
       <r>   -5.8727    1.0000 </r>
       <r>   -5.8721    1.0000 </r>
       <r>   -5.8709    1.0000 </r>
       <r>   -5.7651    1.0000 </r>
       <r>   -5.7647    1.0000 </r>
       <r>   -5.7646    1.0000 </r>
       <r>   -5.7644    1.0000 </r>
       <r>   -5.7641    1.0000 </r>
       <r>   -5.7639    1.0000 </r>
       <r>   -5.3648    1.0000 </r>
       <r>   -5.3641    1.0000 </r>
       <r>   -5.3640    1.0000 </r>
       <r>   -5.3640    1.0000 </r>
       <r>   -5.3634    1.0000 </r>
       <r>   -5.3628    1.0000 </r>
       <r>   -5.0530    1.0000 </r>
       <r>   -5.0529    1.0000 </r>
       <r>   -5.0527    1.0000 </r>
       <r>   -5.0526    1.0000 </r>
       <r>   -5.0513    1.0000 </r>
       <r>   -5.0507    1.0000 </r>
       <r>   -4.8855    1.0000 </r>
       <r>   -4.8847    1.0000 </r>
       <r>   -4.8846    1.0000 </r>
       <r>   -4.8844    1.0000 </r>
       <r>   -4.8842    1.0000 </r>
       <r>   -4.8837    1.0000 </r>
       <r>   -4.8539    1.0000 </r>
       <r>   -4.8536    1.0000 </r>
       <r>   -4.8535    1.0000 </r>
       <r>   -4.8531    1.0000 </r>
       <r>   -4.8522    1.0000 </r>
       <r>   -4.8519    1.0000 </r>
       <r>   -4.3586    1.0000 </r>
       <r>   -4.3578    1.0000 </r>
       <r>   -4.3574    1.0000 </r>
       <r>   -4.3573    1.0000 </r>
       <r>   -4.3573    1.0000 </r>
       <r>   -4.3571    1.0000 </r>
       <r>   -4.1912    1.0000 </r>
       <r>   -4.1911    1.0000 </r>
       <r>   -4.1910    1.0000 </r>
       <r>   -4.1909    1.0000 </r>
       <r>   -4.1898    1.0000 </r>
       <r>   -4.1888    1.0000 </r>
       <r>   -4.0869    1.0000 </r>
       <r>   -4.0857    1.0000 </r>
       <r>   -4.0854    1.0000 </r>
       <r>   -4.0852    1.0000 </r>
       <r>   -4.0851    1.0000 </r>
       <r>   -4.0850    1.0000 </r>
       <r>   -3.6099    1.0000 </r>
       <r>   -3.6082    1.0000 </r>
       <r>   -3.6078    1.0000 </r>
       <r>   -3.6077    1.0000 </r>
       <r>   -3.6077    1.0000 </r>
       <r>   -3.6074    1.0000 </r>
       <r>   -3.5014    1.0000 </r>
       <r>   -3.5013    1.0000 </r>
       <r>   -3.5013    1.0000 </r>
       <r>   -3.5011    1.0000 </r>
       <r>   -3.5003    1.0000 </r>
       <r>   -3.4986    1.0000 </r>
       <r>   -3.4351    1.0000 </r>
       <r>   -3.3975    1.0000 </r>
       <r>   -3.3940    1.0000 </r>
       <r>   -3.3940    1.0000 </r>
       <r>   -3.3939    1.0000 </r>
       <r>   -3.3939    1.0000 </r>
       <r>   -3.3939    1.0000 </r>
       <r>   -2.8533    1.0000 </r>
       <r>   -2.8523    1.0000 </r>
       <r>   -1.8952    0.0000 </r>
       <r>   -1.5159    0.0000 </r>
       <r>   -1.5150    0.0000 </r>
       <r>   -1.5144    0.0000 </r>
       <r>   -1.5142    0.0000 </r>
       <r>   -1.5138    0.0000 </r>
       <r>   -1.5135    0.0000 </r>
       <r>   -1.5047    0.0000 </r>
       <r>   -1.5035    0.0000 </r>
       <r>   -1.5033    0.0000 </r>
       <r>   -1.5032    0.0000 </r>
       <r>   -1.5027    0.0000 </r>
       <r>   -1.5021    0.0000 </r>
       <r>   -0.9875    0.0000 </r>
       <r>   -0.9859    0.0000 </r>
       <r>   -0.9849    0.0000 </r>
       <r>   -0.9846    0.0000 </r>
       <r>   -0.9845    0.0000 </r>
       <r>   -0.9845    0.0000 </r>
       <r>   -0.7394    0.0000 </r>
       <r>   -0.7390    0.0000 </r>
       <r>   -0.7383    0.0000 </r>
       <r>   -0.7376    0.0000 </r>
       <r>   -0.7376    0.0000 </r>
       <r>   -0.7373    0.0000 </r>
       <r>   -0.4303    0.0000 </r>
       <r>   -0.4287    0.0000 </r>
       <r>   -0.4276    0.0000 </r>
       <r>   -0.4276    0.0000 </r>
       <r>   -0.4276    0.0000 </r>
       <r>   -0.4274    0.0000 </r>
       <r>   -0.2276    0.0000 </r>
       <r>   -0.2267    0.0000 </r>
       <r>   -0.2262    0.0000 </r>
       <r>   -0.2252    0.0000 </r>
       <r>   -0.2251    0.0000 </r>
       <r>   -0.2248    0.0000 </r>
       <r>   -0.1915    0.0000 </r>
       <r>   -0.1904    0.0000 </r>
       <r>    0.0848    0.0000 </r>
       <r>    0.0860    0.0000 </r>
       <r>    0.0867    0.0000 </r>
       <r>    0.0868    0.0000 </r>
       <r>    0.0869    0.0000 </r>
       <r>    0.0870    0.0000 </r>
       <r>    0.1367    0.0000 </r>
       <r>    0.1374    0.0000 </r>
       <r>    0.1379    0.0000 </r>
       <r>    0.1382    0.0000 </r>
       <r>    0.1383    0.0000 </r>
       <r>    0.1384    0.0000 </r>
       <r>    0.2336    0.0000 </r>
       <r>    0.2361    0.0000 </r>
       <r>    0.2363    0.0000 </r>
       <r>    0.2369    0.0000 </r>
       <r>    0.2370    0.0000 </r>
       <r>    0.2371    0.0000 </r>
       <r>    0.3253    0.0000 </r>
      </set>
      <set comment="kpoint 2">
       <r>  -25.2695    1.0000 </r>
       <r>  -25.2690    1.0000 </r>
       <r>  -25.2690    1.0000 </r>
       <r>  -25.2683    1.0000 </r>
       <r>  -25.2682    1.0000 </r>
       <r>  -25.2681    1.0000 </r>
       <r>  -25.2668    1.0000 </r>
       <r>  -25.2667    1.0000 </r>
       <r>  -25.2660    1.0000 </r>
       <r>  -25.2659    1.0000 </r>
       <r>  -25.2658    1.0000 </r>
       <r>  -25.2655    1.0000 </r>
       <r>  -25.2654    1.0000 </r>
       <r>  -25.2654    1.0000 </r>
       <r>  -25.2653    1.0000 </r>
       <r>  -25.2651    1.0000 </r>
       <r>  -25.2651    1.0000 </r>
       <r>  -25.2650    1.0000 </r>
       <r>  -25.2649    1.0000 </r>
       <r>  -25.2645    1.0000 </r>
       <r>  -25.2644    1.0000 </r>
       <r>  -25.2641    1.0000 </r>
       <r>  -25.2633    1.0000 </r>
       <r>  -25.2633    1.0000 </r>
       <r>  -25.2631    1.0000 </r>
       <r>  -25.2625    1.0000 </r>
       <r>  -25.2592    1.0000 </r>
       <r>  -25.2579    1.0000 </r>
       <r>  -25.2578    1.0000 </r>
       <r>  -25.2554    1.0000 </r>
       <r>  -25.2553    1.0000 </r>
       <r>  -25.2540    1.0000 </r>
       <r>  -25.2527    1.0000 </r>
       <r>  -25.2527    1.0000 </r>
       <r>  -25.2511    1.0000 </r>
       <r>  -25.2510    1.0000 </r>
       <r>  -25.2508    1.0000 </r>
       <r>  -25.2507    1.0000 </r>
       <r>  -25.2506    1.0000 </r>
       <r>  -25.2505    1.0000 </r>
       <r>  -25.2495    1.0000 </r>
       <r>  -25.2494    1.0000 </r>
       <r>  -25.2489    1.0000 </r>
       <r>  -25.2482    1.0000 </r>
       <r>  -25.2482    1.0000 </r>
       <r>  -25.2480    1.0000 </r>
       <r>  -25.2479    1.0000 </r>
       <r>  -25.2468    1.0000 </r>
       <r>  -25.2467    1.0000 </r>
       <r>  -25.2460    1.0000 </r>
       <r>  -25.2320    1.0000 </r>
       <r>  -25.2317    1.0000 </r>
       <r>  -25.2316    1.0000 </r>
       <r>  -25.2310    1.0000 </r>
       <r>  -25.2310    1.0000 </r>
       <r>  -25.2308    1.0000 </r>
       <r>  -25.2307    1.0000 </r>
       <r>  -25.2305    1.0000 </r>
       <r>  -25.2302    1.0000 </r>
       <r>  -25.2301    1.0000 </r>
       <r>  -25.2297    1.0000 </r>
       <r>  -25.2297    1.0000 </r>
       <r>  -25.2295    1.0000 </r>
       <r>  -25.2295    1.0000 </r>
       <r>  -25.2293    1.0000 </r>
       <r>  -25.2293    1.0000 </r>
       <r>  -25.2285    1.0000 </r>
       <r>  -25.2285    1.0000 </r>
       <r>  -25.2276    1.0000 </r>
       <r>  -25.2269    1.0000 </r>
       <r>  -25.2268    1.0000 </r>
       <r>  -25.2263    1.0000 </r>
       <r>  -25.2261    1.0000 </r>
       <r>  -25.2255    1.0000 </r>
       <r>  -25.2254    1.0000 </r>
       <r>  -25.2253    1.0000 </r>
       <r>  -25.2251    1.0000 </r>
       <r>  -25.2248    1.0000 </r>
       <r>  -25.2247    1.0000 </r>
       <r>  -25.2246    1.0000 </r>
       <r>  -25.2245    1.0000 </r>
       <r>  -25.2243    1.0000 </r>
       <r>  -25.2241    1.0000 </r>
       <r>  -25.2240    1.0000 </r>
       <r>  -25.2239    1.0000 </r>
       <r>  -25.2238    1.0000 </r>
       <r>  -25.2235    1.0000 </r>
       <r>  -25.2234    1.0000 </r>
       <r>  -25.2233    1.0000 </r>
       <r>  -25.2232    1.0000 </r>
       <r>  -25.2232    1.0000 </r>
       <r>  -25.2231    1.0000 </r>
       <r>  -25.2230    1.0000 </r>
       <r>  -25.2230    1.0000 </r>
       <r>  -25.2230    1.0000 </r>
       <r>  -25.2229    1.0000 </r>
       <r>  -25.2228    1.0000 </r>
       <r>  -25.2228    1.0000 </r>
       <r>  -25.2227    1.0000 </r>
       <r>  -25.2225    1.0000 </r>
       <r>  -25.2130    1.0000 </r>
       <r>  -25.2110    1.0000 </r>
       <r>  -25.2101    1.0000 </r>
       <r>  -25.2100    1.0000 </r>
       <r>  -25.2085    1.0000 </r>
       <r>  -25.2083    1.0000 </r>
       <r>  -25.2076    1.0000 </r>
       <r>  -25.2058    1.0000 </r>
       <r>  -25.2057    1.0000 </r>
       <r>  -25.2044    1.0000 </r>
       <r>  -25.2042    1.0000 </r>
       <r>  -25.2042    1.0000 </r>
       <r>  -25.2035    1.0000 </r>
       <r>  -25.2034    1.0000 </r>
       <r>  -25.2033    1.0000 </r>
       <r>  -25.2031    1.0000 </r>
       <r>  -25.2024    1.0000 </r>
       <r>  -25.2023    1.0000 </r>
       <r>  -25.2021    1.0000 </r>
       <r>  -25.2019    1.0000 </r>
       <r>  -25.2017    1.0000 </r>
       <r>  -25.2016    1.0000 </r>
       <r>  -25.2016    1.0000 </r>
       <r>  -25.2015    1.0000 </r>
       <r>  -25.2014    1.0000 </r>
       <r>  -14.5866    1.0000 </r>
       <r>  -14.4099    1.0000 </r>
       <r>  -14.3242    1.0000 </r>
       <r>  -14.3234    1.0000 </r>
       <r>  -14.1567    1.0000 </r>
       <r>  -14.1559    1.0000 </r>
       <r>  -14.0756    1.0000 </r>
       <r>  -13.8419    1.0000 </r>
       <r>  -13.8411    1.0000 </r>
       <r>  -13.6408    1.0000 </r>
       <r>  -13.6297    1.0000 </r>
       <r>  -13.6292    1.0000 </r>
       <r>  -13.5182    1.0000 </r>
       <r>  -13.5179    1.0000 </r>
       <r>  -13.4364    1.0000 </r>
       <r>  -13.4357    1.0000 </r>
       <r>  -13.3262    1.0000 </r>
       <r>  -13.3259    1.0000 </r>
       <r>  -13.2670    1.0000 </r>
       <r>  -13.1182    1.0000 </r>
       <r>  -13.1178    1.0000 </r>
       <r>  -13.0923    1.0000 </r>
       <r>  -13.0917    1.0000 </r>
       <r>  -12.9812    1.0000 </r>
       <r>  -12.9806    1.0000 </r>
       <r>  -11.1152    1.0000 </r>
       <r>  -11.1145    1.0000 </r>
       <r>  -11.0246    1.0000 </r>
       <r>  -11.0243    1.0000 </r>
       <r>  -11.0240    1.0000 </r>
       <r>  -11.0233    1.0000 </r>
       <r>  -10.9215    1.0000 </r>
       <r>  -10.8526    1.0000 </r>
       <r>  -10.8521    1.0000 </r>
       <r>  -10.6919    1.0000 </r>
       <r>  -10.6915    1.0000 </r>
       <r>  -10.6560    1.0000 </r>
       <r>  -10.6556    1.0000 </r>
       <r>  -10.5405    1.0000 </r>
       <r>  -10.5224    1.0000 </r>
       <r>  -10.5222    1.0000 </r>
       <r>  -10.3404    1.0000 </r>
       <r>  -10.3396    1.0000 </r>
       <r>  -10.1742    1.0000 </r>
       <r>  -10.1205    1.0000 </r>
       <r>  -10.1195    1.0000 </r>
       <r>  -10.0298    1.0000 </r>
       <r>  -10.0287    1.0000 </r>
       <r>   -9.9931    1.0000 </r>
       <r>   -9.9409    1.0000 </r>
       <r>   -5.9592    1.0000 </r>
       <r>   -5.9587    1.0000 </r>
       <r>   -5.8237    1.0000 </r>
       <r>   -5.8233    1.0000 </r>
       <r>   -5.7899    1.0000 </r>
       <r>   -5.7896    1.0000 </r>
       <r>   -5.7718    1.0000 </r>
       <r>   -5.7642    1.0000 </r>
       <r>   -5.7638    1.0000 </r>
       <r>   -5.7273    1.0000 </r>
       <r>   -5.7270    1.0000 </r>
       <r>   -5.6992    1.0000 </r>
       <r>   -5.4859    1.0000 </r>
       <r>   -5.4858    1.0000 </r>
       <r>   -5.4610    1.0000 </r>
       <r>   -5.4605    1.0000 </r>
       <r>   -5.3335    1.0000 </r>
       <r>   -5.3332    1.0000 </r>
       <r>   -5.2547    1.0000 </r>
       <r>   -5.2299    1.0000 </r>
       <r>   -5.2292    1.0000 </r>
       <r>   -5.0692    1.0000 </r>
       <r>   -5.0689    1.0000 </r>
       <r>   -4.9777    1.0000 </r>
       <r>   -4.9770    1.0000 </r>
       <r>   -4.9016    1.0000 </r>
       <r>   -4.9011    1.0000 </r>
       <r>   -4.8763    1.0000 </r>
       <r>   -4.8758    1.0000 </r>
       <r>   -4.8060    1.0000 </r>
       <r>   -4.8057    1.0000 </r>
       <r>   -4.6563    1.0000 </r>
       <r>   -4.6560    1.0000 </r>
       <r>   -4.6364    1.0000 </r>
       <r>   -4.6361    1.0000 </r>
       <r>   -4.3880    1.0000 </r>
       <r>   -4.3878    1.0000 </r>
       <r>   -4.3874    1.0000 </r>
       <r>   -4.3873    1.0000 </r>
       <r>   -4.3501    1.0000 </r>
       <r>   -4.3145    1.0000 </r>
       <r>   -4.3142    1.0000 </r>
       <r>   -4.2938    1.0000 </r>
       <r>   -4.2935    1.0000 </r>
       <r>   -4.2624    1.0000 </r>
       <r>   -4.2555    1.0000 </r>
       <r>   -4.2413    1.0000 </r>
       <r>   -4.2403    1.0000 </r>
       <r>   -4.1243    1.0000 </r>
       <r>   -4.1242    1.0000 </r>
       <r>   -4.0726    1.0000 </r>
       <r>   -3.9092    1.0000 </r>
       <r>   -3.9087    1.0000 </r>
       <r>   -3.8609    1.0000 </r>
       <r>   -3.7928    1.0000 </r>
       <r>   -3.7919    1.0000 </r>
       <r>   -3.7712    1.0000 </r>
       <r>   -3.7709    1.0000 </r>
       <r>   -3.7192    1.0000 </r>
       <r>   -3.6446    1.0000 </r>
       <r>   -3.6438    1.0000 </r>
       <r>   -3.5282    1.0000 </r>
       <r>   -3.5279    1.0000 </r>
       <r>   -3.4823    1.0000 </r>
       <r>   -3.4812    1.0000 </r>
       <r>   -3.4733    1.0000 </r>
       <r>   -3.4268    1.0000 </r>
       <r>   -3.3925    1.0000 </r>
       <r>   -3.3914    1.0000 </r>
       <r>   -3.3841    1.0000 </r>
       <r>   -3.3536    1.0000 </r>
       <r>   -3.3525    1.0000 </r>
       <r>   -3.2736    1.0000 </r>
       <r>   -3.1970    1.0000 </r>
       <r>   -2.9103    1.0000 </r>
       <r>   -1.6707    0.0000 </r>
       <r>   -1.6449    0.0000 </r>
       <r>   -1.5896    0.0000 </r>
       <r>   -1.4646    0.0000 </r>
       <r>   -1.4640    0.0000 </r>
       <r>   -1.4550    0.0000 </r>
       <r>   -1.4540    0.0000 </r>
       <r>   -1.3803    0.0000 </r>
       <r>   -1.3182    0.0000 </r>
       <r>   -1.3176    0.0000 </r>
       <r>   -1.2760    0.0000 </r>
       <r>   -1.2405    0.0000 </r>
       <r>   -1.2394    0.0000 </r>
       <r>   -1.1698    0.0000 </r>
       <r>   -1.1693    0.0000 </r>
       <r>   -0.9537    0.0000 </r>
       <r>   -0.9529    0.0000 </r>
       <r>   -0.9513    0.0000 </r>
       <r>   -0.9509    0.0000 </r>
       <r>   -0.9418    0.0000 </r>
       <r>   -0.9415    0.0000 </r>
       <r>   -0.7731    0.0000 </r>
       <r>   -0.7727    0.0000 </r>
       <r>   -0.7299    0.0000 </r>
       <r>   -0.7297    0.0000 </r>
       <r>   -0.4370    0.0000 </r>
       <r>   -0.4365    0.0000 </r>
       <r>   -0.3991    0.0000 </r>
       <r>   -0.3289    0.0000 </r>
       <r>   -0.3283    0.0000 </r>
       <r>   -0.3142    0.0000 </r>
       <r>   -0.3137    0.0000 </r>
       <r>   -0.2772    0.0000 </r>
       <r>   -0.2457    0.0000 </r>
       <r>   -0.2452    0.0000 </r>
       <r>   -0.2017    0.0000 </r>
       <r>   -0.2013    0.0000 </r>
       <r>   -0.1813    0.0000 </r>
       <r>   -0.1808    0.0000 </r>
       <r>   -0.1501    0.0000 </r>
       <r>   -0.1373    0.0000 </r>
       <r>   -0.0942    0.0000 </r>
       <r>   -0.0940    0.0000 </r>
       <r>   -0.0616    0.0000 </r>
       <r>   -0.0611    0.0000 </r>
       <r>   -0.0156    0.0000 </r>
       <r>    0.0765    0.0000 </r>
       <r>    0.0775    0.0000 </r>
       <r>    0.1712    0.0000 </r>
       <r>    0.2134    0.0000 </r>
       <r>    0.2142    0.0000 </r>
       <r>    0.2294    0.0000 </r>
       <r>    0.2304    0.0000 </r>
       <r>    0.2530    0.0000 </r>
       <r>    0.3602    0.0000 </r>
       <r>    0.3611    0.0000 </r>
       <r>    0.3637    0.0000 </r>
       <r>    0.3725    0.0000 </r>
      </set>
      <set comment="kpoint 3">
       <r>  -25.2695    1.0000 </r>
       <r>  -25.2690    1.0000 </r>
       <r>  -25.2690    1.0000 </r>
       <r>  -25.2683    1.0000 </r>
       <r>  -25.2682    1.0000 </r>
       <r>  -25.2681    1.0000 </r>
       <r>  -25.2668    1.0000 </r>
       <r>  -25.2667    1.0000 </r>
       <r>  -25.2660    1.0000 </r>
       <r>  -25.2659    1.0000 </r>
       <r>  -25.2658    1.0000 </r>
       <r>  -25.2655    1.0000 </r>
       <r>  -25.2654    1.0000 </r>
       <r>  -25.2654    1.0000 </r>
       <r>  -25.2653    1.0000 </r>
       <r>  -25.2651    1.0000 </r>
       <r>  -25.2651    1.0000 </r>
       <r>  -25.2649    1.0000 </r>
       <r>  -25.2649    1.0000 </r>
       <r>  -25.2645    1.0000 </r>
       <r>  -25.2644    1.0000 </r>
       <r>  -25.2641    1.0000 </r>
       <r>  -25.2633    1.0000 </r>
       <r>  -25.2633    1.0000 </r>
       <r>  -25.2631    1.0000 </r>
       <r>  -25.2625    1.0000 </r>
       <r>  -25.2592    1.0000 </r>
       <r>  -25.2580    1.0000 </r>
       <r>  -25.2578    1.0000 </r>
       <r>  -25.2554    1.0000 </r>
       <r>  -25.2553    1.0000 </r>
       <r>  -25.2540    1.0000 </r>
       <r>  -25.2527    1.0000 </r>
       <r>  -25.2527    1.0000 </r>
       <r>  -25.2511    1.0000 </r>
       <r>  -25.2510    1.0000 </r>
       <r>  -25.2508    1.0000 </r>
       <r>  -25.2507    1.0000 </r>
       <r>  -25.2506    1.0000 </r>
       <r>  -25.2505    1.0000 </r>
       <r>  -25.2495    1.0000 </r>
       <r>  -25.2494    1.0000 </r>
       <r>  -25.2489    1.0000 </r>
       <r>  -25.2482    1.0000 </r>
       <r>  -25.2482    1.0000 </r>
       <r>  -25.2480    1.0000 </r>
       <r>  -25.2479    1.0000 </r>
       <r>  -25.2468    1.0000 </r>
       <r>  -25.2467    1.0000 </r>
       <r>  -25.2460    1.0000 </r>
       <r>  -25.2320    1.0000 </r>
       <r>  -25.2317    1.0000 </r>
       <r>  -25.2316    1.0000 </r>
       <r>  -25.2311    1.0000 </r>
       <r>  -25.2310    1.0000 </r>
       <r>  -25.2307    1.0000 </r>
       <r>  -25.2307    1.0000 </r>
       <r>  -25.2305    1.0000 </r>
       <r>  -25.2302    1.0000 </r>
       <r>  -25.2301    1.0000 </r>
       <r>  -25.2297    1.0000 </r>
       <r>  -25.2296    1.0000 </r>
       <r>  -25.2295    1.0000 </r>
       <r>  -25.2295    1.0000 </r>
       <r>  -25.2293    1.0000 </r>
       <r>  -25.2293    1.0000 </r>
       <r>  -25.2285    1.0000 </r>
       <r>  -25.2285    1.0000 </r>
       <r>  -25.2275    1.0000 </r>
       <r>  -25.2269    1.0000 </r>
       <r>  -25.2268    1.0000 </r>
       <r>  -25.2263    1.0000 </r>
       <r>  -25.2261    1.0000 </r>
       <r>  -25.2255    1.0000 </r>
       <r>  -25.2254    1.0000 </r>
       <r>  -25.2253    1.0000 </r>
       <r>  -25.2251    1.0000 </r>
       <r>  -25.2248    1.0000 </r>
       <r>  -25.2247    1.0000 </r>
       <r>  -25.2246    1.0000 </r>
       <r>  -25.2245    1.0000 </r>
       <r>  -25.2243    1.0000 </r>
       <r>  -25.2241    1.0000 </r>
       <r>  -25.2240    1.0000 </r>
       <r>  -25.2239    1.0000 </r>
       <r>  -25.2238    1.0000 </r>
       <r>  -25.2235    1.0000 </r>
       <r>  -25.2233    1.0000 </r>
       <r>  -25.2233    1.0000 </r>
       <r>  -25.2232    1.0000 </r>
       <r>  -25.2232    1.0000 </r>
       <r>  -25.2231    1.0000 </r>
       <r>  -25.2231    1.0000 </r>
       <r>  -25.2230    1.0000 </r>
       <r>  -25.2229    1.0000 </r>
       <r>  -25.2229    1.0000 </r>
       <r>  -25.2229    1.0000 </r>
       <r>  -25.2228    1.0000 </r>
       <r>  -25.2227    1.0000 </r>
       <r>  -25.2225    1.0000 </r>
       <r>  -25.2130    1.0000 </r>
       <r>  -25.2110    1.0000 </r>
       <r>  -25.2101    1.0000 </r>
       <r>  -25.2100    1.0000 </r>
       <r>  -25.2085    1.0000 </r>
       <r>  -25.2083    1.0000 </r>
       <r>  -25.2076    1.0000 </r>
       <r>  -25.2058    1.0000 </r>
       <r>  -25.2056    1.0000 </r>
       <r>  -25.2044    1.0000 </r>
       <r>  -25.2043    1.0000 </r>
       <r>  -25.2041    1.0000 </r>
       <r>  -25.2035    1.0000 </r>
       <r>  -25.2034    1.0000 </r>
       <r>  -25.2032    1.0000 </r>
       <r>  -25.2031    1.0000 </r>
       <r>  -25.2024    1.0000 </r>
       <r>  -25.2023    1.0000 </r>
       <r>  -25.2021    1.0000 </r>
       <r>  -25.2018    1.0000 </r>
       <r>  -25.2017    1.0000 </r>
       <r>  -25.2016    1.0000 </r>
       <r>  -25.2016    1.0000 </r>
       <r>  -25.2015    1.0000 </r>
       <r>  -25.2014    1.0000 </r>
       <r>  -14.5866    1.0000 </r>
       <r>  -14.4100    1.0000 </r>
       <r>  -14.3243    1.0000 </r>
       <r>  -14.3232    1.0000 </r>
       <r>  -14.1569    1.0000 </r>
       <r>  -14.1558    1.0000 </r>
       <r>  -14.0757    1.0000 </r>
       <r>  -13.8420    1.0000 </r>
       <r>  -13.8410    1.0000 </r>
       <r>  -13.6409    1.0000 </r>
       <r>  -13.6298    1.0000 </r>
       <r>  -13.6289    1.0000 </r>
       <r>  -13.5184    1.0000 </r>
       <r>  -13.5175    1.0000 </r>
       <r>  -13.4366    1.0000 </r>
       <r>  -13.4357    1.0000 </r>
       <r>  -13.3263    1.0000 </r>
       <r>  -13.3256    1.0000 </r>
       <r>  -13.2672    1.0000 </r>
       <r>  -13.1182    1.0000 </r>
       <r>  -13.1177    1.0000 </r>
       <r>  -13.0925    1.0000 </r>
       <r>  -13.0918    1.0000 </r>
       <r>  -12.9809    1.0000 </r>
       <r>  -12.9807    1.0000 </r>
       <r>  -11.1152    1.0000 </r>
       <r>  -11.1147    1.0000 </r>
       <r>  -11.0245    1.0000 </r>
       <r>  -11.0243    1.0000 </r>
       <r>  -11.0241    1.0000 </r>
       <r>  -11.0232    1.0000 </r>
       <r>  -10.9211    1.0000 </r>
       <r>  -10.8529    1.0000 </r>
       <r>  -10.8521    1.0000 </r>
       <r>  -10.6917    1.0000 </r>
       <r>  -10.6913    1.0000 </r>
       <r>  -10.6563    1.0000 </r>
       <r>  -10.6556    1.0000 </r>
       <r>  -10.5403    1.0000 </r>
       <r>  -10.5228    1.0000 </r>
       <r>  -10.5221    1.0000 </r>
       <r>  -10.3403    1.0000 </r>
       <r>  -10.3396    1.0000 </r>
       <r>  -10.1741    1.0000 </r>
       <r>  -10.1205    1.0000 </r>
       <r>  -10.1195    1.0000 </r>
       <r>  -10.0299    1.0000 </r>
       <r>  -10.0287    1.0000 </r>
       <r>   -9.9931    1.0000 </r>
       <r>   -9.9409    1.0000 </r>
       <r>   -5.9592    1.0000 </r>
       <r>   -5.9586    1.0000 </r>
       <r>   -5.8238    1.0000 </r>
       <r>   -5.8234    1.0000 </r>
       <r>   -5.7900    1.0000 </r>
       <r>   -5.7894    1.0000 </r>
       <r>   -5.7720    1.0000 </r>
       <r>   -5.7642    1.0000 </r>
       <r>   -5.7637    1.0000 </r>
       <r>   -5.7272    1.0000 </r>
       <r>   -5.7270    1.0000 </r>
       <r>   -5.6992    1.0000 </r>
       <r>   -5.4860    1.0000 </r>
       <r>   -5.4858    1.0000 </r>
       <r>   -5.4611    1.0000 </r>
       <r>   -5.4605    1.0000 </r>
       <r>   -5.3335    1.0000 </r>
       <r>   -5.3330    1.0000 </r>
       <r>   -5.2546    1.0000 </r>
       <r>   -5.2299    1.0000 </r>
       <r>   -5.2293    1.0000 </r>
       <r>   -5.0693    1.0000 </r>
       <r>   -5.0688    1.0000 </r>
       <r>   -4.9778    1.0000 </r>
       <r>   -4.9771    1.0000 </r>
       <r>   -4.9015    1.0000 </r>
       <r>   -4.9012    1.0000 </r>
       <r>   -4.8762    1.0000 </r>
       <r>   -4.8757    1.0000 </r>
       <r>   -4.8062    1.0000 </r>
       <r>   -4.8053    1.0000 </r>
       <r>   -4.6565    1.0000 </r>
       <r>   -4.6559    1.0000 </r>
       <r>   -4.6366    1.0000 </r>
       <r>   -4.6363    1.0000 </r>
       <r>   -4.3882    1.0000 </r>
       <r>   -4.3878    1.0000 </r>
       <r>   -4.3875    1.0000 </r>
       <r>   -4.3872    1.0000 </r>
       <r>   -4.3498    1.0000 </r>
       <r>   -4.3146    1.0000 </r>
       <r>   -4.3141    1.0000 </r>
       <r>   -4.2941    1.0000 </r>
       <r>   -4.2936    1.0000 </r>
       <r>   -4.2625    1.0000 </r>
       <r>   -4.2552    1.0000 </r>
       <r>   -4.2409    1.0000 </r>
       <r>   -4.2404    1.0000 </r>
       <r>   -4.1246    1.0000 </r>
       <r>   -4.1243    1.0000 </r>
       <r>   -4.0728    1.0000 </r>
       <r>   -3.9092    1.0000 </r>
       <r>   -3.9086    1.0000 </r>
       <r>   -3.8608    1.0000 </r>
       <r>   -3.7926    1.0000 </r>
       <r>   -3.7920    1.0000 </r>
       <r>   -3.7713    1.0000 </r>
       <r>   -3.7707    1.0000 </r>
       <r>   -3.7194    1.0000 </r>
       <r>   -3.6445    1.0000 </r>
       <r>   -3.6438    1.0000 </r>
       <r>   -3.5282    1.0000 </r>
       <r>   -3.5277    1.0000 </r>
       <r>   -3.4823    1.0000 </r>
       <r>   -3.4813    1.0000 </r>
       <r>   -3.4732    1.0000 </r>
       <r>   -3.4267    1.0000 </r>
       <r>   -3.3926    1.0000 </r>
       <r>   -3.3915    1.0000 </r>
       <r>   -3.3840    1.0000 </r>
       <r>   -3.3533    1.0000 </r>
       <r>   -3.3525    1.0000 </r>
       <r>   -3.2739    1.0000 </r>
       <r>   -3.1966    1.0000 </r>
       <r>   -2.9107    1.0000 </r>
       <r>   -1.6709    0.0000 </r>
       <r>   -1.6451    0.0000 </r>
       <r>   -1.5896    0.0000 </r>
       <r>   -1.4647    0.0000 </r>
       <r>   -1.4638    0.0000 </r>
       <r>   -1.4547    0.0000 </r>
       <r>   -1.4542    0.0000 </r>
       <r>   -1.3804    0.0000 </r>
       <r>   -1.3179    0.0000 </r>
       <r>   -1.3176    0.0000 </r>
       <r>   -1.2761    0.0000 </r>
       <r>   -1.2402    0.0000 </r>
       <r>   -1.2395    0.0000 </r>
       <r>   -1.1698    0.0000 </r>
       <r>   -1.1691    0.0000 </r>
       <r>   -0.9537    0.0000 </r>
       <r>   -0.9532    0.0000 </r>
       <r>   -0.9514    0.0000 </r>
       <r>   -0.9507    0.0000 </r>
       <r>   -0.9418    0.0000 </r>
       <r>   -0.9414    0.0000 </r>
       <r>   -0.7731    0.0000 </r>
       <r>   -0.7723    0.0000 </r>
       <r>   -0.7303    0.0000 </r>
       <r>   -0.7296    0.0000 </r>
       <r>   -0.4371    0.0000 </r>
       <r>   -0.4363    0.0000 </r>
       <r>   -0.3995    0.0000 </r>
       <r>   -0.3291    0.0000 </r>
       <r>   -0.3284    0.0000 </r>
       <r>   -0.3144    0.0000 </r>
       <r>   -0.3135    0.0000 </r>
       <r>   -0.2777    0.0000 </r>
       <r>   -0.2458    0.0000 </r>
       <r>   -0.2448    0.0000 </r>
       <r>   -0.2017    0.0000 </r>
       <r>   -0.2014    0.0000 </r>
       <r>   -0.1813    0.0000 </r>
       <r>   -0.1809    0.0000 </r>
       <r>   -0.1503    0.0000 </r>
       <r>   -0.1368    0.0000 </r>
       <r>   -0.0941    0.0000 </r>
       <r>   -0.0935    0.0000 </r>
       <r>   -0.0617    0.0000 </r>
       <r>   -0.0609    0.0000 </r>
       <r>   -0.0159    0.0000 </r>
       <r>    0.0768    0.0000 </r>
       <r>    0.0776    0.0000 </r>
       <r>    0.1716    0.0000 </r>
       <r>    0.2136    0.0000 </r>
       <r>    0.2144    0.0000 </r>
       <r>    0.2296    0.0000 </r>
       <r>    0.2305    0.0000 </r>
       <r>    0.2527    0.0000 </r>
       <r>    0.3593    0.0000 </r>
       <r>    0.3608    0.0000 </r>
       <r>    0.3627    0.0000 </r>
       <r>    0.3661    0.0000 </r>
      </set>
      <set comment="kpoint 4">
       <r>  -25.2696    1.0000 </r>
       <r>  -25.2690    1.0000 </r>
       <r>  -25.2690    1.0000 </r>
       <r>  -25.2683    1.0000 </r>
       <r>  -25.2683    1.0000 </r>
       <r>  -25.2681    1.0000 </r>
       <r>  -25.2667    1.0000 </r>
       <r>  -25.2667    1.0000 </r>
       <r>  -25.2660    1.0000 </r>
       <r>  -25.2659    1.0000 </r>
       <r>  -25.2658    1.0000 </r>
       <r>  -25.2655    1.0000 </r>
       <r>  -25.2655    1.0000 </r>
       <r>  -25.2654    1.0000 </r>
       <r>  -25.2654    1.0000 </r>
       <r>  -25.2651    1.0000 </r>
       <r>  -25.2651    1.0000 </r>
       <r>  -25.2649    1.0000 </r>
       <r>  -25.2648    1.0000 </r>
       <r>  -25.2645    1.0000 </r>
       <r>  -25.2644    1.0000 </r>
       <r>  -25.2641    1.0000 </r>
       <r>  -25.2633    1.0000 </r>
       <r>  -25.2633    1.0000 </r>
       <r>  -25.2631    1.0000 </r>
       <r>  -25.2625    1.0000 </r>
       <r>  -25.2592    1.0000 </r>
       <r>  -25.2580    1.0000 </r>
       <r>  -25.2578    1.0000 </r>
       <r>  -25.2554    1.0000 </r>
       <r>  -25.2553    1.0000 </r>
       <r>  -25.2540    1.0000 </r>
       <r>  -25.2527    1.0000 </r>
       <r>  -25.2527    1.0000 </r>
       <r>  -25.2511    1.0000 </r>
       <r>  -25.2510    1.0000 </r>
       <r>  -25.2508    1.0000 </r>
       <r>  -25.2507    1.0000 </r>
       <r>  -25.2506    1.0000 </r>
       <r>  -25.2505    1.0000 </r>
       <r>  -25.2495    1.0000 </r>
       <r>  -25.2494    1.0000 </r>
       <r>  -25.2490    1.0000 </r>
       <r>  -25.2483    1.0000 </r>
       <r>  -25.2482    1.0000 </r>
       <r>  -25.2479    1.0000 </r>
       <r>  -25.2479    1.0000 </r>
       <r>  -25.2467    1.0000 </r>
       <r>  -25.2467    1.0000 </r>
       <r>  -25.2460    1.0000 </r>
       <r>  -25.2320    1.0000 </r>
       <r>  -25.2317    1.0000 </r>
       <r>  -25.2317    1.0000 </r>
       <r>  -25.2311    1.0000 </r>
       <r>  -25.2311    1.0000 </r>
       <r>  -25.2307    1.0000 </r>
       <r>  -25.2307    1.0000 </r>
       <r>  -25.2304    1.0000 </r>
       <r>  -25.2302    1.0000 </r>
       <r>  -25.2301    1.0000 </r>
       <r>  -25.2297    1.0000 </r>
       <r>  -25.2296    1.0000 </r>
       <r>  -25.2295    1.0000 </r>
       <r>  -25.2295    1.0000 </r>
       <r>  -25.2294    1.0000 </r>
       <r>  -25.2293    1.0000 </r>
       <r>  -25.2285    1.0000 </r>
       <r>  -25.2285    1.0000 </r>
       <r>  -25.2275    1.0000 </r>
       <r>  -25.2269    1.0000 </r>
       <r>  -25.2268    1.0000 </r>
       <r>  -25.2262    1.0000 </r>
       <r>  -25.2262    1.0000 </r>
       <r>  -25.2256    1.0000 </r>
       <r>  -25.2254    1.0000 </r>
       <r>  -25.2253    1.0000 </r>
       <r>  -25.2251    1.0000 </r>
       <r>  -25.2248    1.0000 </r>
       <r>  -25.2247    1.0000 </r>
       <r>  -25.2246    1.0000 </r>
       <r>  -25.2244    1.0000 </r>
       <r>  -25.2243    1.0000 </r>
       <r>  -25.2241    1.0000 </r>
       <r>  -25.2240    1.0000 </r>
       <r>  -25.2239    1.0000 </r>
       <r>  -25.2238    1.0000 </r>
       <r>  -25.2234    1.0000 </r>
       <r>  -25.2233    1.0000 </r>
       <r>  -25.2233    1.0000 </r>
       <r>  -25.2233    1.0000 </r>
       <r>  -25.2232    1.0000 </r>
       <r>  -25.2231    1.0000 </r>
       <r>  -25.2231    1.0000 </r>
       <r>  -25.2230    1.0000 </r>
       <r>  -25.2229    1.0000 </r>
       <r>  -25.2229    1.0000 </r>
       <r>  -25.2228    1.0000 </r>
       <r>  -25.2228    1.0000 </r>
       <r>  -25.2227    1.0000 </r>
       <r>  -25.2225    1.0000 </r>
       <r>  -25.2130    1.0000 </r>
       <r>  -25.2110    1.0000 </r>
       <r>  -25.2101    1.0000 </r>
       <r>  -25.2100    1.0000 </r>
       <r>  -25.2085    1.0000 </r>
       <r>  -25.2083    1.0000 </r>
       <r>  -25.2076    1.0000 </r>
       <r>  -25.2059    1.0000 </r>
       <r>  -25.2056    1.0000 </r>
       <r>  -25.2044    1.0000 </r>
       <r>  -25.2043    1.0000 </r>
       <r>  -25.2041    1.0000 </r>
       <r>  -25.2035    1.0000 </r>
       <r>  -25.2034    1.0000 </r>
       <r>  -25.2032    1.0000 </r>
       <r>  -25.2031    1.0000 </r>
       <r>  -25.2024    1.0000 </r>
       <r>  -25.2023    1.0000 </r>
       <r>  -25.2021    1.0000 </r>
       <r>  -25.2018    1.0000 </r>
       <r>  -25.2017    1.0000 </r>
       <r>  -25.2017    1.0000 </r>
       <r>  -25.2016    1.0000 </r>
       <r>  -25.2014    1.0000 </r>
       <r>  -25.2014    1.0000 </r>
       <r>  -14.5866    1.0000 </r>
       <r>  -14.4100    1.0000 </r>
       <r>  -14.3243    1.0000 </r>
       <r>  -14.3232    1.0000 </r>
       <r>  -14.1568    1.0000 </r>
       <r>  -14.1558    1.0000 </r>
       <r>  -14.0757    1.0000 </r>
       <r>  -13.8419    1.0000 </r>
       <r>  -13.8411    1.0000 </r>
       <r>  -13.6410    1.0000 </r>
       <r>  -13.6298    1.0000 </r>
       <r>  -13.6288    1.0000 </r>
       <r>  -13.5183    1.0000 </r>
       <r>  -13.5174    1.0000 </r>
       <r>  -13.4365    1.0000 </r>
       <r>  -13.4359    1.0000 </r>
       <r>  -13.3263    1.0000 </r>
       <r>  -13.3255    1.0000 </r>
       <r>  -13.2674    1.0000 </r>
       <r>  -13.1182    1.0000 </r>
       <r>  -13.1175    1.0000 </r>
       <r>  -13.0925    1.0000 </r>
       <r>  -13.0921    1.0000 </r>
       <r>  -12.9810    1.0000 </r>
       <r>  -12.9805    1.0000 </r>
       <r>  -11.1152    1.0000 </r>
       <r>  -11.1150    1.0000 </r>
       <r>  -11.0244    1.0000 </r>
       <r>  -11.0242    1.0000 </r>
       <r>  -11.0240    1.0000 </r>
       <r>  -11.0232    1.0000 </r>
       <r>  -10.9207    1.0000 </r>
       <r>  -10.8529    1.0000 </r>
       <r>  -10.8524    1.0000 </r>
       <r>  -10.6915    1.0000 </r>
       <r>  -10.6913    1.0000 </r>
       <r>  -10.6565    1.0000 </r>
       <r>  -10.6558    1.0000 </r>
       <r>  -10.5400    1.0000 </r>
       <r>  -10.5230    1.0000 </r>
       <r>  -10.5223    1.0000 </r>
       <r>  -10.3402    1.0000 </r>
       <r>  -10.3396    1.0000 </r>
       <r>  -10.1740    1.0000 </r>
       <r>  -10.1205    1.0000 </r>
       <r>  -10.1195    1.0000 </r>
       <r>  -10.0300    1.0000 </r>
       <r>  -10.0287    1.0000 </r>
       <r>   -9.9931    1.0000 </r>
       <r>   -9.9409    1.0000 </r>
       <r>   -5.9590    1.0000 </r>
       <r>   -5.9586    1.0000 </r>
       <r>   -5.8241    1.0000 </r>
       <r>   -5.8234    1.0000 </r>
       <r>   -5.7898    1.0000 </r>
       <r>   -5.7894    1.0000 </r>
       <r>   -5.7721    1.0000 </r>
       <r>   -5.7640    1.0000 </r>
       <r>   -5.7638    1.0000 </r>
       <r>   -5.7272    1.0000 </r>
       <r>   -5.7270    1.0000 </r>
       <r>   -5.6992    1.0000 </r>
       <r>   -5.4862    1.0000 </r>
       <r>   -5.4857    1.0000 </r>
       <r>   -5.4610    1.0000 </r>
       <r>   -5.4607    1.0000 </r>
       <r>   -5.3336    1.0000 </r>
       <r>   -5.3329    1.0000 </r>
       <r>   -5.2545    1.0000 </r>
       <r>   -5.2298    1.0000 </r>
       <r>   -5.2295    1.0000 </r>
       <r>   -5.0694    1.0000 </r>
       <r>   -5.0688    1.0000 </r>
       <r>   -4.9776    1.0000 </r>
       <r>   -4.9773    1.0000 </r>
       <r>   -4.9017    1.0000 </r>
       <r>   -4.9009    1.0000 </r>
       <r>   -4.8760    1.0000 </r>
       <r>   -4.8757    1.0000 </r>
       <r>   -4.8061    1.0000 </r>
       <r>   -4.8053    1.0000 </r>
       <r>   -4.6565    1.0000 </r>
       <r>   -4.6561    1.0000 </r>
       <r>   -4.6370    1.0000 </r>
       <r>   -4.6364    1.0000 </r>
       <r>   -4.3880    1.0000 </r>
       <r>   -4.3878    1.0000 </r>
       <r>   -4.3876    1.0000 </r>
       <r>   -4.3872    1.0000 </r>
       <r>   -4.3496    1.0000 </r>
       <r>   -4.3146    1.0000 </r>
       <r>   -4.3141    1.0000 </r>
       <r>   -4.2941    1.0000 </r>
       <r>   -4.2938    1.0000 </r>
       <r>   -4.2627    1.0000 </r>
       <r>   -4.2549    1.0000 </r>
       <r>   -4.2405    1.0000 </r>
       <r>   -4.2404    1.0000 </r>
       <r>   -4.1248    1.0000 </r>
       <r>   -4.1245    1.0000 </r>
       <r>   -4.0729    1.0000 </r>
       <r>   -3.9090    1.0000 </r>
       <r>   -3.9087    1.0000 </r>
       <r>   -3.8606    1.0000 </r>
       <r>   -3.7924    1.0000 </r>
       <r>   -3.7921    1.0000 </r>
       <r>   -3.7713    1.0000 </r>
       <r>   -3.7706    1.0000 </r>
       <r>   -3.7196    1.0000 </r>
       <r>   -3.6444    1.0000 </r>
       <r>   -3.6440    1.0000 </r>
       <r>   -3.5280    1.0000 </r>
       <r>   -3.5276    1.0000 </r>
       <r>   -3.4822    1.0000 </r>
       <r>   -3.4814    1.0000 </r>
       <r>   -3.4731    1.0000 </r>
       <r>   -3.4267    1.0000 </r>
       <r>   -3.3927    1.0000 </r>
       <r>   -3.3916    1.0000 </r>
       <r>   -3.3840    1.0000 </r>
       <r>   -3.3530    1.0000 </r>
       <r>   -3.3526    1.0000 </r>
       <r>   -3.2742    1.0000 </r>
       <r>   -3.1963    1.0000 </r>
       <r>   -2.9111    1.0000 </r>
       <r>   -1.6711    0.0000 </r>
       <r>   -1.6452    0.0000 </r>
       <r>   -1.5895    0.0000 </r>
       <r>   -1.4647    0.0000 </r>
       <r>   -1.4638    0.0000 </r>
       <r>   -1.4546    0.0000 </r>
       <r>   -1.4541    0.0000 </r>
       <r>   -1.3806    0.0000 </r>
       <r>   -1.3178    0.0000 </r>
       <r>   -1.3174    0.0000 </r>
       <r>   -1.2763    0.0000 </r>
       <r>   -1.2401    0.0000 </r>
       <r>   -1.2395    0.0000 </r>
       <r>   -1.1698    0.0000 </r>
       <r>   -1.1691    0.0000 </r>
       <r>   -0.9541    0.0000 </r>
       <r>   -0.9531    0.0000 </r>
       <r>   -0.9513    0.0000 </r>
       <r>   -0.9508    0.0000 </r>
       <r>   -0.9417    0.0000 </r>
       <r>   -0.9415    0.0000 </r>
       <r>   -0.7727    0.0000 </r>
       <r>   -0.7723    0.0000 </r>
       <r>   -0.7306    0.0000 </r>
       <r>   -0.7295    0.0000 </r>
       <r>   -0.4368    0.0000 </r>
       <r>   -0.4364    0.0000 </r>
       <r>   -0.3999    0.0000 </r>
       <r>   -0.3296    0.0000 </r>
       <r>   -0.3284    0.0000 </r>
       <r>   -0.3141    0.0000 </r>
       <r>   -0.3136    0.0000 </r>
       <r>   -0.2782    0.0000 </r>
       <r>   -0.2456    0.0000 </r>
       <r>   -0.2447    0.0000 </r>
       <r>   -0.2019    0.0000 </r>
       <r>   -0.2013    0.0000 </r>
       <r>   -0.1813    0.0000 </r>
       <r>   -0.1811    0.0000 </r>
       <r>   -0.1505    0.0000 </r>
       <r>   -0.1363    0.0000 </r>
       <r>   -0.0937    0.0000 </r>
       <r>   -0.0933    0.0000 </r>
       <r>   -0.0616    0.0000 </r>
       <r>   -0.0611    0.0000 </r>
       <r>   -0.0162    0.0000 </r>
       <r>    0.0772    0.0000 </r>
       <r>    0.0775    0.0000 </r>
       <r>    0.1719    0.0000 </r>
       <r>    0.2141    0.0000 </r>
       <r>    0.2144    0.0000 </r>
       <r>    0.2299    0.0000 </r>
       <r>    0.2305    0.0000 </r>
       <r>    0.2525    0.0000 </r>
       <r>    0.3606    0.0000 </r>
       <r>    0.3619    0.0000 </r>
       <r>    0.3700    0.0000 </r>
       <r>    0.3840    0.0000 </r>
      </set>
      <set comment="kpoint 5">
       <r>  -25.2697    1.0000 </r>
       <r>  -25.2683    1.0000 </r>
       <r>  -25.2683    1.0000 </r>
       <r>  -25.2681    1.0000 </r>
       <r>  -25.2680    1.0000 </r>
       <r>  -25.2672    1.0000 </r>
       <r>  -25.2671    1.0000 </r>
       <r>  -25.2671    1.0000 </r>
       <r>  -25.2671    1.0000 </r>
       <r>  -25.2670    1.0000 </r>
       <r>  -25.2670    1.0000 </r>
       <r>  -25.2655    1.0000 </r>
       <r>  -25.2655    1.0000 </r>
       <r>  -25.2655    1.0000 </r>
       <r>  -25.2654    1.0000 </r>
       <r>  -25.2651    1.0000 </r>
       <r>  -25.2650    1.0000 </r>
       <r>  -25.2650    1.0000 </r>
       <r>  -25.2649    1.0000 </r>
       <r>  -25.2643    1.0000 </r>
       <r>  -25.2642    1.0000 </r>
       <r>  -25.2635    1.0000 </r>
       <r>  -25.2634    1.0000 </r>
       <r>  -25.2626    1.0000 </r>
       <r>  -25.2626    1.0000 </r>
       <r>  -25.2613    1.0000 </r>
       <r>  -25.2612    1.0000 </r>
       <r>  -25.2584    1.0000 </r>
       <r>  -25.2583    1.0000 </r>
       <r>  -25.2540    1.0000 </r>
       <r>  -25.2540    1.0000 </r>
       <r>  -25.2540    1.0000 </r>
       <r>  -25.2539    1.0000 </r>
       <r>  -25.2514    1.0000 </r>
       <r>  -25.2513    1.0000 </r>
       <r>  -25.2512    1.0000 </r>
       <r>  -25.2512    1.0000 </r>
       <r>  -25.2500    1.0000 </r>
       <r>  -25.2499    1.0000 </r>
       <r>  -25.2499    1.0000 </r>
       <r>  -25.2499    1.0000 </r>
       <r>  -25.2497    1.0000 </r>
       <r>  -25.2496    1.0000 </r>
       <r>  -25.2496    1.0000 </r>
       <r>  -25.2495    1.0000 </r>
       <r>  -25.2472    1.0000 </r>
       <r>  -25.2471    1.0000 </r>
       <r>  -25.2470    1.0000 </r>
       <r>  -25.2469    1.0000 </r>
       <r>  -25.2456    1.0000 </r>
       <r>  -25.2322    1.0000 </r>
       <r>  -25.2317    1.0000 </r>
       <r>  -25.2316    1.0000 </r>
       <r>  -25.2314    1.0000 </r>
       <r>  -25.2313    1.0000 </r>
       <r>  -25.2303    1.0000 </r>
       <r>  -25.2302    1.0000 </r>
       <r>  -25.2301    1.0000 </r>
       <r>  -25.2300    1.0000 </r>
       <r>  -25.2300    1.0000 </r>
       <r>  -25.2300    1.0000 </r>
       <r>  -25.2299    1.0000 </r>
       <r>  -25.2299    1.0000 </r>
       <r>  -25.2290    1.0000 </r>
       <r>  -25.2290    1.0000 </r>
       <r>  -25.2289    1.0000 </r>
       <r>  -25.2289    1.0000 </r>
       <r>  -25.2277    1.0000 </r>
       <r>  -25.2277    1.0000 </r>
       <r>  -25.2277    1.0000 </r>
       <r>  -25.2276    1.0000 </r>
       <r>  -25.2268    1.0000 </r>
       <r>  -25.2266    1.0000 </r>
       <r>  -25.2253    1.0000 </r>
       <r>  -25.2252    1.0000 </r>
       <r>  -25.2251    1.0000 </r>
       <r>  -25.2249    1.0000 </r>
       <r>  -25.2249    1.0000 </r>
       <r>  -25.2249    1.0000 </r>
       <r>  -25.2242    1.0000 </r>
       <r>  -25.2241    1.0000 </r>
       <r>  -25.2238    1.0000 </r>
       <r>  -25.2237    1.0000 </r>
       <r>  -25.2236    1.0000 </r>
       <r>  -25.2236    1.0000 </r>
       <r>  -25.2236    1.0000 </r>
       <r>  -25.2236    1.0000 </r>
       <r>  -25.2235    1.0000 </r>
       <r>  -25.2234    1.0000 </r>
       <r>  -25.2233    1.0000 </r>
       <r>  -25.2233    1.0000 </r>
       <r>  -25.2233    1.0000 </r>
       <r>  -25.2233    1.0000 </r>
       <r>  -25.2232    1.0000 </r>
       <r>  -25.2231    1.0000 </r>
       <r>  -25.2230    1.0000 </r>
       <r>  -25.2229    1.0000 </r>
       <r>  -25.2228    1.0000 </r>
       <r>  -25.2227    1.0000 </r>
       <r>  -25.2226    1.0000 </r>
       <r>  -25.2123    1.0000 </r>
       <r>  -25.2121    1.0000 </r>
       <r>  -25.2103    1.0000 </r>
       <r>  -25.2102    1.0000 </r>
       <r>  -25.2073    1.0000 </r>
       <r>  -25.2071    1.0000 </r>
       <r>  -25.2071    1.0000 </r>
       <r>  -25.2070    1.0000 </r>
       <r>  -25.2058    1.0000 </r>
       <r>  -25.2057    1.0000 </r>
       <r>  -25.2042    1.0000 </r>
       <r>  -25.2039    1.0000 </r>
       <r>  -25.2038    1.0000 </r>
       <r>  -25.2037    1.0000 </r>
       <r>  -25.2027    1.0000 </r>
       <r>  -25.2025    1.0000 </r>
       <r>  -25.2023    1.0000 </r>
       <r>  -25.2022    1.0000 </r>
       <r>  -25.2019    1.0000 </r>
       <r>  -25.2019    1.0000 </r>
       <r>  -25.2018    1.0000 </r>
       <r>  -25.2017    1.0000 </r>
       <r>  -25.2016    1.0000 </r>
       <r>  -25.2016    1.0000 </r>
       <r>  -25.2014    1.0000 </r>
       <r>  -14.5203    1.0000 </r>
       <r>  -14.5191    1.0000 </r>
       <r>  -14.3455    1.0000 </r>
       <r>  -14.3447    1.0000 </r>
       <r>  -14.0157    1.0000 </r>
       <r>  -14.0155    1.0000 </r>
       <r>  -14.0153    1.0000 </r>
       <r>  -14.0136    1.0000 </r>
       <r>  -13.8651    1.0000 </r>
       <r>  -13.8638    1.0000 </r>
       <r>  -13.5869    1.0000 </r>
       <r>  -13.5869    1.0000 </r>
       <r>  -13.5865    1.0000 </r>
       <r>  -13.5858    1.0000 </r>
       <r>  -13.2409    1.0000 </r>
       <r>  -13.2407    1.0000 </r>
       <r>  -13.2404    1.0000 </r>
       <r>  -13.2390    1.0000 </r>
       <r>  -13.2193    1.0000 </r>
       <r>  -13.2190    1.0000 </r>
       <r>  -13.2187    1.0000 </r>
       <r>  -13.2181    1.0000 </r>
       <r>  -13.2046    1.0000 </r>
       <r>  -12.9622    1.0000 </r>
       <r>  -12.9617    1.0000 </r>
       <r>  -11.1264    1.0000 </r>
       <r>  -11.1257    1.0000 </r>
       <r>  -10.9877    1.0000 </r>
       <r>  -10.9462    1.0000 </r>
       <r>  -10.9461    1.0000 </r>
       <r>  -10.9460    1.0000 </r>
       <r>  -10.9449    1.0000 </r>
       <r>  -10.8792    1.0000 </r>
       <r>  -10.8785    1.0000 </r>
       <r>  -10.8784    1.0000 </r>
       <r>  -10.8783    1.0000 </r>
       <r>  -10.5758    1.0000 </r>
       <r>  -10.5757    1.0000 </r>
       <r>  -10.5756    1.0000 </r>
       <r>  -10.5751    1.0000 </r>
       <r>  -10.3378    1.0000 </r>
       <r>  -10.3368    1.0000 </r>
       <r>  -10.2127    1.0000 </r>
       <r>  -10.2111    1.0000 </r>
       <r>  -10.2111    1.0000 </r>
       <r>  -10.2109    1.0000 </r>
       <r>  -10.0198    1.0000 </r>
       <r>  -10.0186    1.0000 </r>
       <r>   -9.9577    1.0000 </r>
       <r>   -9.9564    1.0000 </r>
       <r>   -5.9947    1.0000 </r>
       <r>   -5.9941    1.0000 </r>
       <r>   -5.7669    1.0000 </r>
       <r>   -5.7588    1.0000 </r>
       <r>   -5.7582    1.0000 </r>
       <r>   -5.7579    1.0000 </r>
       <r>   -5.7576    1.0000 </r>
       <r>   -5.6799    1.0000 </r>
       <r>   -5.6798    1.0000 </r>
       <r>   -5.6792    1.0000 </r>
       <r>   -5.6783    1.0000 </r>
       <r>   -5.6346    1.0000 </r>
       <r>   -5.6344    1.0000 </r>
       <r>   -5.6343    1.0000 </r>
       <r>   -5.6339    1.0000 </r>
       <r>   -5.5370    1.0000 </r>
       <r>   -5.5361    1.0000 </r>
       <r>   -5.2365    1.0000 </r>
       <r>   -5.2361    1.0000 </r>
       <r>   -5.2353    1.0000 </r>
       <r>   -5.2350    1.0000 </r>
       <r>   -5.1318    1.0000 </r>
       <r>   -5.1312    1.0000 </r>
       <r>   -5.1309    1.0000 </r>
       <r>   -5.1301    1.0000 </r>
       <r>   -4.9024    1.0000 </r>
       <r>   -4.9018    1.0000 </r>
       <r>   -4.6291    1.0000 </r>
       <r>   -4.6289    1.0000 </r>
       <r>   -4.6286    1.0000 </r>
       <r>   -4.6280    1.0000 </r>
       <r>   -4.5835    1.0000 </r>
       <r>   -4.5833    1.0000 </r>
       <r>   -4.5829    1.0000 </r>
       <r>   -4.5823    1.0000 </r>
       <r>   -4.5313    1.0000 </r>
       <r>   -4.5309    1.0000 </r>
       <r>   -4.3949    1.0000 </r>
       <r>   -4.3945    1.0000 </r>
       <r>   -4.3196    1.0000 </r>
       <r>   -4.2867    1.0000 </r>
       <r>   -4.2051    1.0000 </r>
       <r>   -4.2043    1.0000 </r>
       <r>   -4.2041    1.0000 </r>
       <r>   -4.2039    1.0000 </r>
       <r>   -4.2039    1.0000 </r>
       <r>   -4.2035    1.0000 </r>
       <r>   -4.2027    1.0000 </r>
       <r>   -4.2024    1.0000 </r>
       <r>   -4.0181    1.0000 </r>
       <r>   -4.0168    1.0000 </r>
       <r>   -4.0165    1.0000 </r>
       <r>   -4.0163    1.0000 </r>
       <r>   -3.9143    1.0000 </r>
       <r>   -3.9125    1.0000 </r>
       <r>   -3.7785    1.0000 </r>
       <r>   -3.7780    1.0000 </r>
       <r>   -3.7492    1.0000 </r>
       <r>   -3.7479    1.0000 </r>
       <r>   -3.7479    1.0000 </r>
       <r>   -3.7478    1.0000 </r>
       <r>   -3.6388    1.0000 </r>
       <r>   -3.6378    1.0000 </r>
       <r>   -3.5890    1.0000 </r>
       <r>   -3.5887    1.0000 </r>
       <r>   -3.4148    1.0000 </r>
       <r>   -3.4130    1.0000 </r>
       <r>   -3.4129    1.0000 </r>
       <r>   -3.4127    1.0000 </r>
       <r>   -3.4043    1.0000 </r>
       <r>   -3.4032    1.0000 </r>
       <r>   -3.3447    1.0000 </r>
       <r>   -3.3436    1.0000 </r>
       <r>   -3.0654    1.0000 </r>
       <r>   -3.0635    1.0000 </r>
       <r>   -1.7135    0.0000 </r>
       <r>   -1.7132    0.0000 </r>
       <r>   -1.3187    0.0000 </r>
       <r>   -1.2417    0.0000 </r>
       <r>   -1.2407    0.0000 </r>
       <r>   -1.2396    0.0000 </r>
       <r>   -1.2391    0.0000 </r>
       <r>   -1.2383    0.0000 </r>
       <r>   -1.2381    0.0000 </r>
       <r>   -1.2278    0.0000 </r>
       <r>   -1.2275    0.0000 </r>
       <r>   -1.2114    0.0000 </r>
       <r>   -1.2101    0.0000 </r>
       <r>   -1.2097    0.0000 </r>
       <r>   -1.2096    0.0000 </r>
       <r>   -0.9437    0.0000 </r>
       <r>   -0.9429    0.0000 </r>
       <r>   -0.9422    0.0000 </r>
       <r>   -0.9421    0.0000 </r>
       <r>   -0.9086    0.0000 </r>
       <r>   -0.9075    0.0000 </r>
       <r>   -0.8610    0.0000 </r>
       <r>   -0.8604    0.0000 </r>
       <r>   -0.8595    0.0000 </r>
       <r>   -0.8595    0.0000 </r>
       <r>   -0.5336    0.0000 </r>
       <r>   -0.5331    0.0000 </r>
       <r>   -0.4718    0.0000 </r>
       <r>   -0.4227    0.0000 </r>
       <r>   -0.4221    0.0000 </r>
       <r>   -0.4211    0.0000 </r>
       <r>   -0.4207    0.0000 </r>
       <r>   -0.3701    0.0000 </r>
       <r>   -0.3696    0.0000 </r>
       <r>   -0.2639    0.0000 </r>
       <r>   -0.2631    0.0000 </r>
       <r>   -0.2625    0.0000 </r>
       <r>   -0.2620    0.0000 </r>
       <r>   -0.0707    0.0000 </r>
       <r>   -0.0692    0.0000 </r>
       <r>   -0.0688    0.0000 </r>
       <r>   -0.0685    0.0000 </r>
       <r>    0.0004    0.0000 </r>
       <r>    0.0018    0.0000 </r>
       <r>    0.0534    0.0000 </r>
       <r>    0.0543    0.0000 </r>
       <r>    0.0556    0.0000 </r>
       <r>    0.0558    0.0000 </r>
       <r>    0.1720    0.0000 </r>
       <r>    0.1730    0.0000 </r>
       <r>    0.2207    0.0000 </r>
       <r>    0.2218    0.0000 </r>
       <r>    0.2279    0.0000 </r>
       <r>    0.2286    0.0000 </r>
       <r>    0.2292    0.0000 </r>
       <r>    0.2299    0.0000 </r>
       <r>    0.2976    0.0000 </r>
       <r>    0.2982    0.0000 </r>
      </set>
      <set comment="kpoint 6">
       <r>  -25.2697    1.0000 </r>
       <r>  -25.2683    1.0000 </r>
       <r>  -25.2683    1.0000 </r>
       <r>  -25.2681    1.0000 </r>
       <r>  -25.2680    1.0000 </r>
       <r>  -25.2672    1.0000 </r>
       <r>  -25.2671    1.0000 </r>
       <r>  -25.2671    1.0000 </r>
       <r>  -25.2670    1.0000 </r>
       <r>  -25.2670    1.0000 </r>
       <r>  -25.2670    1.0000 </r>
       <r>  -25.2655    1.0000 </r>
       <r>  -25.2655    1.0000 </r>
       <r>  -25.2655    1.0000 </r>
       <r>  -25.2654    1.0000 </r>
       <r>  -25.2651    1.0000 </r>
       <r>  -25.2650    1.0000 </r>
       <r>  -25.2649    1.0000 </r>
       <r>  -25.2649    1.0000 </r>
       <r>  -25.2643    1.0000 </r>
       <r>  -25.2642    1.0000 </r>
       <r>  -25.2636    1.0000 </r>
       <r>  -25.2634    1.0000 </r>
       <r>  -25.2626    1.0000 </r>
       <r>  -25.2626    1.0000 </r>
       <r>  -25.2613    1.0000 </r>
       <r>  -25.2611    1.0000 </r>
       <r>  -25.2584    1.0000 </r>
       <r>  -25.2583    1.0000 </r>
       <r>  -25.2540    1.0000 </r>
       <r>  -25.2540    1.0000 </r>
       <r>  -25.2540    1.0000 </r>
       <r>  -25.2539    1.0000 </r>
       <r>  -25.2514    1.0000 </r>
       <r>  -25.2513    1.0000 </r>
       <r>  -25.2512    1.0000 </r>
       <r>  -25.2512    1.0000 </r>
       <r>  -25.2501    1.0000 </r>
       <r>  -25.2500    1.0000 </r>
       <r>  -25.2499    1.0000 </r>
       <r>  -25.2498    1.0000 </r>
       <r>  -25.2497    1.0000 </r>
       <r>  -25.2497    1.0000 </r>
       <r>  -25.2496    1.0000 </r>
       <r>  -25.2495    1.0000 </r>
       <r>  -25.2472    1.0000 </r>
       <r>  -25.2471    1.0000 </r>
       <r>  -25.2470    1.0000 </r>
       <r>  -25.2469    1.0000 </r>
       <r>  -25.2456    1.0000 </r>
       <r>  -25.2322    1.0000 </r>
       <r>  -25.2317    1.0000 </r>
       <r>  -25.2316    1.0000 </r>
       <r>  -25.2314    1.0000 </r>
       <r>  -25.2313    1.0000 </r>
       <r>  -25.2303    1.0000 </r>
       <r>  -25.2302    1.0000 </r>
       <r>  -25.2301    1.0000 </r>
       <r>  -25.2300    1.0000 </r>
       <r>  -25.2300    1.0000 </r>
       <r>  -25.2299    1.0000 </r>
       <r>  -25.2299    1.0000 </r>
       <r>  -25.2299    1.0000 </r>
       <r>  -25.2290    1.0000 </r>
       <r>  -25.2290    1.0000 </r>
       <r>  -25.2289    1.0000 </r>
       <r>  -25.2289    1.0000 </r>
       <r>  -25.2278    1.0000 </r>
       <r>  -25.2277    1.0000 </r>
       <r>  -25.2277    1.0000 </r>
       <r>  -25.2276    1.0000 </r>
       <r>  -25.2268    1.0000 </r>
       <r>  -25.2266    1.0000 </r>
       <r>  -25.2253    1.0000 </r>
       <r>  -25.2253    1.0000 </r>
       <r>  -25.2251    1.0000 </r>
       <r>  -25.2250    1.0000 </r>
       <r>  -25.2249    1.0000 </r>
       <r>  -25.2249    1.0000 </r>
       <r>  -25.2242    1.0000 </r>
       <r>  -25.2241    1.0000 </r>
       <r>  -25.2238    1.0000 </r>
       <r>  -25.2237    1.0000 </r>
       <r>  -25.2236    1.0000 </r>
       <r>  -25.2236    1.0000 </r>
       <r>  -25.2235    1.0000 </r>
       <r>  -25.2235    1.0000 </r>
       <r>  -25.2235    1.0000 </r>
       <r>  -25.2235    1.0000 </r>
       <r>  -25.2234    1.0000 </r>
       <r>  -25.2234    1.0000 </r>
       <r>  -25.2233    1.0000 </r>
       <r>  -25.2233    1.0000 </r>
       <r>  -25.2232    1.0000 </r>
       <r>  -25.2231    1.0000 </r>
       <r>  -25.2230    1.0000 </r>
       <r>  -25.2229    1.0000 </r>
       <r>  -25.2228    1.0000 </r>
       <r>  -25.2227    1.0000 </r>
       <r>  -25.2225    1.0000 </r>
       <r>  -25.2124    1.0000 </r>
       <r>  -25.2121    1.0000 </r>
       <r>  -25.2104    1.0000 </r>
       <r>  -25.2102    1.0000 </r>
       <r>  -25.2073    1.0000 </r>
       <r>  -25.2072    1.0000 </r>
       <r>  -25.2070    1.0000 </r>
       <r>  -25.2070    1.0000 </r>
       <r>  -25.2059    1.0000 </r>
       <r>  -25.2057    1.0000 </r>
       <r>  -25.2042    1.0000 </r>
       <r>  -25.2040    1.0000 </r>
       <r>  -25.2038    1.0000 </r>
       <r>  -25.2037    1.0000 </r>
       <r>  -25.2027    1.0000 </r>
       <r>  -25.2024    1.0000 </r>
       <r>  -25.2023    1.0000 </r>
       <r>  -25.2022    1.0000 </r>
       <r>  -25.2020    1.0000 </r>
       <r>  -25.2019    1.0000 </r>
       <r>  -25.2018    1.0000 </r>
       <r>  -25.2017    1.0000 </r>
       <r>  -25.2016    1.0000 </r>
       <r>  -25.2015    1.0000 </r>
       <r>  -25.2014    1.0000 </r>
       <r>  -14.5202    1.0000 </r>
       <r>  -14.5192    1.0000 </r>
       <r>  -14.3456    1.0000 </r>
       <r>  -14.3445    1.0000 </r>
       <r>  -14.0156    1.0000 </r>
       <r>  -14.0155    1.0000 </r>
       <r>  -14.0154    1.0000 </r>
       <r>  -14.0136    1.0000 </r>
       <r>  -13.8649    1.0000 </r>
       <r>  -13.8642    1.0000 </r>
       <r>  -13.5870    1.0000 </r>
       <r>  -13.5868    1.0000 </r>
       <r>  -13.5868    1.0000 </r>
       <r>  -13.5852    1.0000 </r>
       <r>  -13.2409    1.0000 </r>
       <r>  -13.2406    1.0000 </r>
       <r>  -13.2404    1.0000 </r>
       <r>  -13.2395    1.0000 </r>
       <r>  -13.2192    1.0000 </r>
       <r>  -13.2190    1.0000 </r>
       <r>  -13.2187    1.0000 </r>
       <r>  -13.2179    1.0000 </r>
       <r>  -13.2049    1.0000 </r>
       <r>  -12.9619    1.0000 </r>
       <r>  -12.9618    1.0000 </r>
       <r>  -11.1265    1.0000 </r>
       <r>  -11.1259    1.0000 </r>
       <r>  -10.9873    1.0000 </r>
       <r>  -10.9467    1.0000 </r>
       <r>  -10.9461    1.0000 </r>
       <r>  -10.9460    1.0000 </r>
       <r>  -10.9450    1.0000 </r>
       <r>  -10.8787    1.0000 </r>
       <r>  -10.8785    1.0000 </r>
       <r>  -10.8784    1.0000 </r>
       <r>  -10.8780    1.0000 </r>
       <r>  -10.5766    1.0000 </r>
       <r>  -10.5757    1.0000 </r>
       <r>  -10.5756    1.0000 </r>
       <r>  -10.5752    1.0000 </r>
       <r>  -10.3375    1.0000 </r>
       <r>  -10.3368    1.0000 </r>
       <r>  -10.2128    1.0000 </r>
       <r>  -10.2111    1.0000 </r>
       <r>  -10.2111    1.0000 </r>
       <r>  -10.2109    1.0000 </r>
       <r>  -10.0199    1.0000 </r>
       <r>  -10.0187    1.0000 </r>
       <r>   -9.9577    1.0000 </r>
       <r>   -9.9564    1.0000 </r>
       <r>   -5.9946    1.0000 </r>
       <r>   -5.9940    1.0000 </r>
       <r>   -5.7671    1.0000 </r>
       <r>   -5.7586    1.0000 </r>
       <r>   -5.7582    1.0000 </r>
       <r>   -5.7580    1.0000 </r>
       <r>   -5.7574    1.0000 </r>
       <r>   -5.6798    1.0000 </r>
       <r>   -5.6797    1.0000 </r>
       <r>   -5.6794    1.0000 </r>
       <r>   -5.6787    1.0000 </r>
       <r>   -5.6347    1.0000 </r>
       <r>   -5.6344    1.0000 </r>
       <r>   -5.6342    1.0000 </r>
       <r>   -5.6339    1.0000 </r>
       <r>   -5.5367    1.0000 </r>
       <r>   -5.5363    1.0000 </r>
       <r>   -5.2364    1.0000 </r>
       <r>   -5.2360    1.0000 </r>
       <r>   -5.2355    1.0000 </r>
       <r>   -5.2350    1.0000 </r>
       <r>   -5.1316    1.0000 </r>
       <r>   -5.1312    1.0000 </r>
       <r>   -5.1312    1.0000 </r>
       <r>   -5.1302    1.0000 </r>
       <r>   -4.9022    1.0000 </r>
       <r>   -4.9020    1.0000 </r>
       <r>   -4.6291    1.0000 </r>
       <r>   -4.6290    1.0000 </r>
       <r>   -4.6285    1.0000 </r>
       <r>   -4.6278    1.0000 </r>
       <r>   -4.5835    1.0000 </r>
       <r>   -4.5833    1.0000 </r>
       <r>   -4.5830    1.0000 </r>
       <r>   -4.5821    1.0000 </r>
       <r>   -4.5315    1.0000 </r>
       <r>   -4.5314    1.0000 </r>
       <r>   -4.3951    1.0000 </r>
       <r>   -4.3945    1.0000 </r>
       <r>   -4.3193    1.0000 </r>
       <r>   -4.2868    1.0000 </r>
       <r>   -4.2053    1.0000 </r>
       <r>   -4.2043    1.0000 </r>
       <r>   -4.2040    1.0000 </r>
       <r>   -4.2040    1.0000 </r>
       <r>   -4.2039    1.0000 </r>
       <r>   -4.2038    1.0000 </r>
       <r>   -4.2029    1.0000 </r>
       <r>   -4.2024    1.0000 </r>
       <r>   -4.0176    1.0000 </r>
       <r>   -4.0168    1.0000 </r>
       <r>   -4.0165    1.0000 </r>
       <r>   -4.0164    1.0000 </r>
       <r>   -3.9141    1.0000 </r>
       <r>   -3.9130    1.0000 </r>
       <r>   -3.7781    1.0000 </r>
       <r>   -3.7778    1.0000 </r>
       <r>   -3.7491    1.0000 </r>
       <r>   -3.7480    1.0000 </r>
       <r>   -3.7479    1.0000 </r>
       <r>   -3.7478    1.0000 </r>
       <r>   -3.6387    1.0000 </r>
       <r>   -3.6378    1.0000 </r>
       <r>   -3.5888    1.0000 </r>
       <r>   -3.5884    1.0000 </r>
       <r>   -3.4150    1.0000 </r>
       <r>   -3.4131    1.0000 </r>
       <r>   -3.4129    1.0000 </r>
       <r>   -3.4127    1.0000 </r>
       <r>   -3.4043    1.0000 </r>
       <r>   -3.4032    1.0000 </r>
       <r>   -3.3444    1.0000 </r>
       <r>   -3.3436    1.0000 </r>
       <r>   -3.0653    1.0000 </r>
       <r>   -3.0643    1.0000 </r>
       <r>   -1.7137    0.0000 </r>
       <r>   -1.7133    0.0000 </r>
       <r>   -1.3189    0.0000 </r>
       <r>   -1.2417    0.0000 </r>
       <r>   -1.2401    0.0000 </r>
       <r>   -1.2398    0.0000 </r>
       <r>   -1.2394    0.0000 </r>
       <r>   -1.2384    0.0000 </r>
       <r>   -1.2380    0.0000 </r>
       <r>   -1.2277    0.0000 </r>
       <r>   -1.2275    0.0000 </r>
       <r>   -1.2107    0.0000 </r>
       <r>   -1.2103    0.0000 </r>
       <r>   -1.2097    0.0000 </r>
       <r>   -1.2097    0.0000 </r>
       <r>   -0.9433    0.0000 </r>
       <r>   -0.9426    0.0000 </r>
       <r>   -0.9421    0.0000 </r>
       <r>   -0.9420    0.0000 </r>
       <r>   -0.9083    0.0000 </r>
       <r>   -0.9076    0.0000 </r>
       <r>   -0.8614    0.0000 </r>
       <r>   -0.8605    0.0000 </r>
       <r>   -0.8595    0.0000 </r>
       <r>   -0.8595    0.0000 </r>
       <r>   -0.5337    0.0000 </r>
       <r>   -0.5333    0.0000 </r>
       <r>   -0.4723    0.0000 </r>
       <r>   -0.4228    0.0000 </r>
       <r>   -0.4219    0.0000 </r>
       <r>   -0.4215    0.0000 </r>
       <r>   -0.4209    0.0000 </r>
       <r>   -0.3705    0.0000 </r>
       <r>   -0.3699    0.0000 </r>
       <r>   -0.2641    0.0000 </r>
       <r>   -0.2627    0.0000 </r>
       <r>   -0.2625    0.0000 </r>
       <r>   -0.2620    0.0000 </r>
       <r>   -0.0703    0.0000 </r>
       <r>   -0.0689    0.0000 </r>
       <r>   -0.0687    0.0000 </r>
       <r>   -0.0685    0.0000 </r>
       <r>    0.0012    0.0000 </r>
       <r>    0.0018    0.0000 </r>
       <r>    0.0538    0.0000 </r>
       <r>    0.0552    0.0000 </r>
       <r>    0.0556    0.0000 </r>
       <r>    0.0559    0.0000 </r>
       <r>    0.1716    0.0000 </r>
       <r>    0.1728    0.0000 </r>
       <r>    0.2210    0.0000 </r>
       <r>    0.2220    0.0000 </r>
       <r>    0.2280    0.0000 </r>
       <r>    0.2283    0.0000 </r>
       <r>    0.2288    0.0000 </r>
       <r>    0.2295    0.0000 </r>
       <r>    0.2978    0.0000 </r>
       <r>    0.2984    0.0000 </r>
      </set>
      <set comment="kpoint 7">
       <r>  -25.2697    1.0000 </r>
       <r>  -25.2683    1.0000 </r>
       <r>  -25.2683    1.0000 </r>
       <r>  -25.2681    1.0000 </r>
       <r>  -25.2681    1.0000 </r>
       <r>  -25.2672    1.0000 </r>
       <r>  -25.2671    1.0000 </r>
       <r>  -25.2671    1.0000 </r>
       <r>  -25.2670    1.0000 </r>
       <r>  -25.2670    1.0000 </r>
       <r>  -25.2669    1.0000 </r>
       <r>  -25.2656    1.0000 </r>
       <r>  -25.2655    1.0000 </r>
       <r>  -25.2655    1.0000 </r>
       <r>  -25.2655    1.0000 </r>
       <r>  -25.2651    1.0000 </r>
       <r>  -25.2650    1.0000 </r>
       <r>  -25.2649    1.0000 </r>
       <r>  -25.2648    1.0000 </r>
       <r>  -25.2643    1.0000 </r>
       <r>  -25.2641    1.0000 </r>
       <r>  -25.2636    1.0000 </r>
       <r>  -25.2634    1.0000 </r>
       <r>  -25.2626    1.0000 </r>
       <r>  -25.2626    1.0000 </r>
       <r>  -25.2614    1.0000 </r>
       <r>  -25.2611    1.0000 </r>
       <r>  -25.2584    1.0000 </r>
       <r>  -25.2583    1.0000 </r>
       <r>  -25.2540    1.0000 </r>
       <r>  -25.2540    1.0000 </r>
       <r>  -25.2539    1.0000 </r>
       <r>  -25.2539    1.0000 </r>
       <r>  -25.2514    1.0000 </r>
       <r>  -25.2513    1.0000 </r>
       <r>  -25.2512    1.0000 </r>
       <r>  -25.2512    1.0000 </r>
       <r>  -25.2501    1.0000 </r>
       <r>  -25.2500    1.0000 </r>
       <r>  -25.2499    1.0000 </r>
       <r>  -25.2498    1.0000 </r>
       <r>  -25.2497    1.0000 </r>
       <r>  -25.2497    1.0000 </r>
       <r>  -25.2495    1.0000 </r>
       <r>  -25.2495    1.0000 </r>
       <r>  -25.2471    1.0000 </r>
       <r>  -25.2471    1.0000 </r>
       <r>  -25.2470    1.0000 </r>
       <r>  -25.2469    1.0000 </r>
       <r>  -25.2456    1.0000 </r>
       <r>  -25.2322    1.0000 </r>
       <r>  -25.2317    1.0000 </r>
       <r>  -25.2316    1.0000 </r>
       <r>  -25.2314    1.0000 </r>
       <r>  -25.2313    1.0000 </r>
       <r>  -25.2303    1.0000 </r>
       <r>  -25.2302    1.0000 </r>
       <r>  -25.2302    1.0000 </r>
       <r>  -25.2300    1.0000 </r>
       <r>  -25.2299    1.0000 </r>
       <r>  -25.2299    1.0000 </r>
       <r>  -25.2299    1.0000 </r>
       <r>  -25.2298    1.0000 </r>
       <r>  -25.2290    1.0000 </r>
       <r>  -25.2289    1.0000 </r>
       <r>  -25.2289    1.0000 </r>
       <r>  -25.2289    1.0000 </r>
       <r>  -25.2278    1.0000 </r>
       <r>  -25.2277    1.0000 </r>
       <r>  -25.2276    1.0000 </r>
       <r>  -25.2276    1.0000 </r>
       <r>  -25.2267    1.0000 </r>
       <r>  -25.2267    1.0000 </r>
       <r>  -25.2254    1.0000 </r>
       <r>  -25.2253    1.0000 </r>
       <r>  -25.2252    1.0000 </r>
       <r>  -25.2250    1.0000 </r>
       <r>  -25.2249    1.0000 </r>
       <r>  -25.2248    1.0000 </r>
       <r>  -25.2241    1.0000 </r>
       <r>  -25.2241    1.0000 </r>
       <r>  -25.2238    1.0000 </r>
       <r>  -25.2236    1.0000 </r>
       <r>  -25.2236    1.0000 </r>
       <r>  -25.2236    1.0000 </r>
       <r>  -25.2235    1.0000 </r>
       <r>  -25.2235    1.0000 </r>
       <r>  -25.2235    1.0000 </r>
       <r>  -25.2235    1.0000 </r>
       <r>  -25.2234    1.0000 </r>
       <r>  -25.2234    1.0000 </r>
       <r>  -25.2234    1.0000 </r>
       <r>  -25.2233    1.0000 </r>
       <r>  -25.2233    1.0000 </r>
       <r>  -25.2231    1.0000 </r>
       <r>  -25.2230    1.0000 </r>
       <r>  -25.2229    1.0000 </r>
       <r>  -25.2228    1.0000 </r>
       <r>  -25.2227    1.0000 </r>
       <r>  -25.2225    1.0000 </r>
       <r>  -25.2124    1.0000 </r>
       <r>  -25.2120    1.0000 </r>
       <r>  -25.2104    1.0000 </r>
       <r>  -25.2102    1.0000 </r>
       <r>  -25.2073    1.0000 </r>
       <r>  -25.2072    1.0000 </r>
       <r>  -25.2071    1.0000 </r>
       <r>  -25.2069    1.0000 </r>
       <r>  -25.2059    1.0000 </r>
       <r>  -25.2057    1.0000 </r>
       <r>  -25.2042    1.0000 </r>
       <r>  -25.2041    1.0000 </r>
       <r>  -25.2037    1.0000 </r>
       <r>  -25.2037    1.0000 </r>
       <r>  -25.2027    1.0000 </r>
       <r>  -25.2024    1.0000 </r>
       <r>  -25.2022    1.0000 </r>
       <r>  -25.2021    1.0000 </r>
       <r>  -25.2020    1.0000 </r>
       <r>  -25.2020    1.0000 </r>
       <r>  -25.2018    1.0000 </r>
       <r>  -25.2018    1.0000 </r>
       <r>  -25.2016    1.0000 </r>
       <r>  -25.2015    1.0000 </r>
       <r>  -25.2014    1.0000 </r>
       <r>  -14.5202    1.0000 </r>
       <r>  -14.5193    1.0000 </r>
       <r>  -14.3456    1.0000 </r>
       <r>  -14.3445    1.0000 </r>
       <r>  -14.0157    1.0000 </r>
       <r>  -14.0155    1.0000 </r>
       <r>  -14.0154    1.0000 </r>
       <r>  -14.0137    1.0000 </r>
       <r>  -13.8650    1.0000 </r>
       <r>  -13.8643    1.0000 </r>
       <r>  -13.5869    1.0000 </r>
       <r>  -13.5868    1.0000 </r>
       <r>  -13.5867    1.0000 </r>
       <r>  -13.5850    1.0000 </r>
       <r>  -13.2409    1.0000 </r>
       <r>  -13.2406    1.0000 </r>
       <r>  -13.2403    1.0000 </r>
       <r>  -13.2400    1.0000 </r>
       <r>  -13.2192    1.0000 </r>
       <r>  -13.2190    1.0000 </r>
       <r>  -13.2188    1.0000 </r>
       <r>  -13.2175    1.0000 </r>
       <r>  -13.2051    1.0000 </r>
       <r>  -12.9620    1.0000 </r>
       <r>  -12.9616    1.0000 </r>
       <r>  -11.1265    1.0000 </r>
       <r>  -11.1262    1.0000 </r>
       <r>  -10.9869    1.0000 </r>
       <r>  -10.9466    1.0000 </r>
       <r>  -10.9461    1.0000 </r>
       <r>  -10.9460    1.0000 </r>
       <r>  -10.9456    1.0000 </r>
       <r>  -10.8786    1.0000 </r>
       <r>  -10.8786    1.0000 </r>
       <r>  -10.8784    1.0000 </r>
       <r>  -10.8772    1.0000 </r>
       <r>  -10.5770    1.0000 </r>
       <r>  -10.5756    1.0000 </r>
       <r>  -10.5756    1.0000 </r>
       <r>  -10.5755    1.0000 </r>
       <r>  -10.3373    1.0000 </r>
       <r>  -10.3367    1.0000 </r>
       <r>  -10.2127    1.0000 </r>
       <r>  -10.2111    1.0000 </r>
       <r>  -10.2110    1.0000 </r>
       <r>  -10.2110    1.0000 </r>
       <r>  -10.0199    1.0000 </r>
       <r>  -10.0187    1.0000 </r>
       <r>   -9.9577    1.0000 </r>
       <r>   -9.9564    1.0000 </r>
       <r>   -5.9945    1.0000 </r>
       <r>   -5.9940    1.0000 </r>
       <r>   -5.7673    1.0000 </r>
       <r>   -5.7582    1.0000 </r>
       <r>   -5.7581    1.0000 </r>
       <r>   -5.7581    1.0000 </r>
       <r>   -5.7576    1.0000 </r>
       <r>   -5.6800    1.0000 </r>
       <r>   -5.6797    1.0000 </r>
       <r>   -5.6795    1.0000 </r>
       <r>   -5.6789    1.0000 </r>
       <r>   -5.6349    1.0000 </r>
       <r>   -5.6342    1.0000 </r>
       <r>   -5.6341    1.0000 </r>
       <r>   -5.6339    1.0000 </r>
       <r>   -5.5366    1.0000 </r>
       <r>   -5.5363    1.0000 </r>
       <r>   -5.2364    1.0000 </r>
       <r>   -5.2358    1.0000 </r>
       <r>   -5.2354    1.0000 </r>
       <r>   -5.2352    1.0000 </r>
       <r>   -5.1314    1.0000 </r>
       <r>   -5.1312    1.0000 </r>
       <r>   -5.1310    1.0000 </r>
       <r>   -5.1307    1.0000 </r>
       <r>   -4.9024    1.0000 </r>
       <r>   -4.9017    1.0000 </r>
       <r>   -4.6290    1.0000 </r>
       <r>   -4.6289    1.0000 </r>
       <r>   -4.6285    1.0000 </r>
       <r>   -4.6275    1.0000 </r>
       <r>   -4.5835    1.0000 </r>
       <r>   -4.5833    1.0000 </r>
       <r>   -4.5828    1.0000 </r>
       <r>   -4.5821    1.0000 </r>
       <r>   -4.5320    1.0000 </r>
       <r>   -4.5314    1.0000 </r>
       <r>   -4.3951    1.0000 </r>
       <r>   -4.3947    1.0000 </r>
       <r>   -4.3190    1.0000 </r>
       <r>   -4.2869    1.0000 </r>
       <r>   -4.2054    1.0000 </r>
       <r>   -4.2046    1.0000 </r>
       <r>   -4.2041    1.0000 </r>
       <r>   -4.2040    1.0000 </r>
       <r>   -4.2039    1.0000 </r>
       <r>   -4.2038    1.0000 </r>
       <r>   -4.2033    1.0000 </r>
       <r>   -4.2023    1.0000 </r>
       <r>   -4.0172    1.0000 </r>
       <r>   -4.0168    1.0000 </r>
       <r>   -4.0165    1.0000 </r>
       <r>   -4.0164    1.0000 </r>
       <r>   -3.9142    1.0000 </r>
       <r>   -3.9133    1.0000 </r>
       <r>   -3.7781    1.0000 </r>
       <r>   -3.7772    1.0000 </r>
       <r>   -3.7488    1.0000 </r>
       <r>   -3.7482    1.0000 </r>
       <r>   -3.7478    1.0000 </r>
       <r>   -3.7478    1.0000 </r>
       <r>   -3.6385    1.0000 </r>
       <r>   -3.6377    1.0000 </r>
       <r>   -3.5886    1.0000 </r>
       <r>   -3.5881    1.0000 </r>
       <r>   -3.4152    1.0000 </r>
       <r>   -3.4130    1.0000 </r>
       <r>   -3.4129    1.0000 </r>
       <r>   -3.4128    1.0000 </r>
       <r>   -3.4044    1.0000 </r>
       <r>   -3.4031    1.0000 </r>
       <r>   -3.3441    1.0000 </r>
       <r>   -3.3436    1.0000 </r>
       <r>   -3.0654    1.0000 </r>
       <r>   -3.0649    1.0000 </r>
       <r>   -1.7140    0.0000 </r>
       <r>   -1.7134    0.0000 </r>
       <r>   -1.3190    0.0000 </r>
       <r>   -1.2414    0.0000 </r>
       <r>   -1.2405    0.0000 </r>
       <r>   -1.2398    0.0000 </r>
       <r>   -1.2394    0.0000 </r>
       <r>   -1.2382    0.0000 </r>
       <r>   -1.2380    0.0000 </r>
       <r>   -1.2277    0.0000 </r>
       <r>   -1.2275    0.0000 </r>
       <r>   -1.2108    0.0000 </r>
       <r>   -1.2104    0.0000 </r>
       <r>   -1.2096    0.0000 </r>
       <r>   -1.2095    0.0000 </r>
       <r>   -0.9429    0.0000 </r>
       <r>   -0.9426    0.0000 </r>
       <r>   -0.9419    0.0000 </r>
       <r>   -0.9418    0.0000 </r>
       <r>   -0.9080    0.0000 </r>
       <r>   -0.9076    0.0000 </r>
       <r>   -0.8622    0.0000 </r>
       <r>   -0.8604    0.0000 </r>
       <r>   -0.8595    0.0000 </r>
       <r>   -0.8595    0.0000 </r>
       <r>   -0.5339    0.0000 </r>
       <r>   -0.5334    0.0000 </r>
       <r>   -0.4727    0.0000 </r>
       <r>   -0.4231    0.0000 </r>
       <r>   -0.4219    0.0000 </r>
       <r>   -0.4215    0.0000 </r>
       <r>   -0.4211    0.0000 </r>
       <r>   -0.3713    0.0000 </r>
       <r>   -0.3698    0.0000 </r>
       <r>   -0.2636    0.0000 </r>
       <r>   -0.2630    0.0000 </r>
       <r>   -0.2626    0.0000 </r>
       <r>   -0.2621    0.0000 </r>
       <r>   -0.0696    0.0000 </r>
       <r>   -0.0690    0.0000 </r>
       <r>   -0.0688    0.0000 </r>
       <r>   -0.0682    0.0000 </r>
       <r>    0.0016    0.0000 </r>
       <r>    0.0022    0.0000 </r>
       <r>    0.0546    0.0000 </r>
       <r>    0.0557    0.0000 </r>
       <r>    0.0558    0.0000 </r>
       <r>    0.0560    0.0000 </r>
       <r>    0.1711    0.0000 </r>
       <r>    0.1727    0.0000 </r>
       <r>    0.2215    0.0000 </r>
       <r>    0.2221    0.0000 </r>
       <r>    0.2272    0.0000 </r>
       <r>    0.2283    0.0000 </r>
       <r>    0.2287    0.0000 </r>
       <r>    0.2298    0.0000 </r>
       <r>    0.2976    0.0000 </r>
       <r>    0.2985    0.0000 </r>
      </set>
      <set comment="kpoint 8">
       <r>  -25.2694    1.0000 </r>
       <r>  -25.2693    1.0000 </r>
       <r>  -25.2684    1.0000 </r>
       <r>  -25.2678    1.0000 </r>
       <r>  -25.2676    1.0000 </r>
       <r>  -25.2674    1.0000 </r>
       <r>  -25.2674    1.0000 </r>
       <r>  -25.2667    1.0000 </r>
       <r>  -25.2665    1.0000 </r>
       <r>  -25.2664    1.0000 </r>
       <r>  -25.2663    1.0000 </r>
       <r>  -25.2663    1.0000 </r>
       <r>  -25.2662    1.0000 </r>
       <r>  -25.2661    1.0000 </r>
       <r>  -25.2661    1.0000 </r>
       <r>  -25.2651    1.0000 </r>
       <r>  -25.2648    1.0000 </r>
       <r>  -25.2647    1.0000 </r>
       <r>  -25.2643    1.0000 </r>
       <r>  -25.2638    1.0000 </r>
       <r>  -25.2638    1.0000 </r>
       <r>  -25.2637    1.0000 </r>
       <r>  -25.2636    1.0000 </r>
       <r>  -25.2633    1.0000 </r>
       <r>  -25.2622    1.0000 </r>
       <r>  -25.2617    1.0000 </r>
       <r>  -25.2601    1.0000 </r>
       <r>  -25.2601    1.0000 </r>
       <r>  -25.2563    1.0000 </r>
       <r>  -25.2562    1.0000 </r>
       <r>  -25.2545    1.0000 </r>
       <r>  -25.2528    1.0000 </r>
       <r>  -25.2526    1.0000 </r>
       <r>  -25.2518    1.0000 </r>
       <r>  -25.2516    1.0000 </r>
       <r>  -25.2515    1.0000 </r>
       <r>  -25.2508    1.0000 </r>
       <r>  -25.2506    1.0000 </r>
       <r>  -25.2505    1.0000 </r>
       <r>  -25.2502    1.0000 </r>
       <r>  -25.2502    1.0000 </r>
       <r>  -25.2496    1.0000 </r>
       <r>  -25.2495    1.0000 </r>
       <r>  -25.2486    1.0000 </r>
       <r>  -25.2484    1.0000 </r>
       <r>  -25.2482    1.0000 </r>
       <r>  -25.2479    1.0000 </r>
       <r>  -25.2467    1.0000 </r>
       <r>  -25.2460    1.0000 </r>
       <r>  -25.2460    1.0000 </r>
       <r>  -25.2321    1.0000 </r>
       <r>  -25.2320    1.0000 </r>
       <r>  -25.2317    1.0000 </r>
       <r>  -25.2311    1.0000 </r>
       <r>  -25.2309    1.0000 </r>
       <r>  -25.2308    1.0000 </r>
       <r>  -25.2306    1.0000 </r>
       <r>  -25.2302    1.0000 </r>
       <r>  -25.2302    1.0000 </r>
       <r>  -25.2298    1.0000 </r>
       <r>  -25.2297    1.0000 </r>
       <r>  -25.2296    1.0000 </r>
       <r>  -25.2295    1.0000 </r>
       <r>  -25.2294    1.0000 </r>
       <r>  -25.2290    1.0000 </r>
       <r>  -25.2289    1.0000 </r>
       <r>  -25.2285    1.0000 </r>
       <r>  -25.2284    1.0000 </r>
       <r>  -25.2282    1.0000 </r>
       <r>  -25.2275    1.0000 </r>
       <r>  -25.2272    1.0000 </r>
       <r>  -25.2265    1.0000 </r>
       <r>  -25.2263    1.0000 </r>
       <r>  -25.2259    1.0000 </r>
       <r>  -25.2258    1.0000 </r>
       <r>  -25.2253    1.0000 </r>
       <r>  -25.2246    1.0000 </r>
       <r>  -25.2244    1.0000 </r>
       <r>  -25.2243    1.0000 </r>
       <r>  -25.2242    1.0000 </r>
       <r>  -25.2242    1.0000 </r>
       <r>  -25.2241    1.0000 </r>
       <r>  -25.2240    1.0000 </r>
       <r>  -25.2237    1.0000 </r>
       <r>  -25.2236    1.0000 </r>
       <r>  -25.2236    1.0000 </r>
       <r>  -25.2236    1.0000 </r>
       <r>  -25.2234    1.0000 </r>
       <r>  -25.2234    1.0000 </r>
       <r>  -25.2233    1.0000 </r>
       <r>  -25.2233    1.0000 </r>
       <r>  -25.2232    1.0000 </r>
       <r>  -25.2232    1.0000 </r>
       <r>  -25.2231    1.0000 </r>
       <r>  -25.2231    1.0000 </r>
       <r>  -25.2231    1.0000 </r>
       <r>  -25.2230    1.0000 </r>
       <r>  -25.2227    1.0000 </r>
       <r>  -25.2227    1.0000 </r>
       <r>  -25.2226    1.0000 </r>
       <r>  -25.2125    1.0000 </r>
       <r>  -25.2116    1.0000 </r>
       <r>  -25.2113    1.0000 </r>
       <r>  -25.2088    1.0000 </r>
       <r>  -25.2087    1.0000 </r>
       <r>  -25.2073    1.0000 </r>
       <r>  -25.2068    1.0000 </r>
       <r>  -25.2064    1.0000 </r>
       <r>  -25.2056    1.0000 </r>
       <r>  -25.2054    1.0000 </r>
       <r>  -25.2049    1.0000 </r>
       <r>  -25.2048    1.0000 </r>
       <r>  -25.2033    1.0000 </r>
       <r>  -25.2030    1.0000 </r>
       <r>  -25.2028    1.0000 </r>
       <r>  -25.2026    1.0000 </r>
       <r>  -25.2025    1.0000 </r>
       <r>  -25.2023    1.0000 </r>
       <r>  -25.2020    1.0000 </r>
       <r>  -25.2019    1.0000 </r>
       <r>  -25.2017    1.0000 </r>
       <r>  -25.2016    1.0000 </r>
       <r>  -25.2016    1.0000 </r>
       <r>  -25.2016    1.0000 </r>
       <r>  -25.2014    1.0000 </r>
       <r>  -14.5419    1.0000 </r>
       <r>  -14.4540    1.0000 </r>
       <r>  -14.4531    1.0000 </r>
       <r>  -14.1977    1.0000 </r>
       <r>  -14.1968    1.0000 </r>
       <r>  -14.0343    1.0000 </r>
       <r>  -13.9582    1.0000 </r>
       <r>  -13.9573    1.0000 </r>
       <r>  -13.8072    1.0000 </r>
       <r>  -13.8065    1.0000 </r>
       <r>  -13.7393    1.0000 </r>
       <r>  -13.7384    1.0000 </r>
       <r>  -13.4162    1.0000 </r>
       <r>  -13.4155    1.0000 </r>
       <r>  -13.3780    1.0000 </r>
       <r>  -13.3776    1.0000 </r>
       <r>  -13.2439    1.0000 </r>
       <r>  -13.2310    1.0000 </r>
       <r>  -13.2303    1.0000 </r>
       <r>  -13.2090    1.0000 </r>
       <r>  -13.2082    1.0000 </r>
       <r>  -13.1576    1.0000 </r>
       <r>  -13.0799    1.0000 </r>
       <r>  -13.0795    1.0000 </r>
       <r>  -12.9177    1.0000 </r>
       <r>  -11.1659    1.0000 </r>
       <r>  -11.0210    1.0000 </r>
       <r>  -11.0206    1.0000 </r>
       <r>  -11.0096    1.0000 </r>
       <r>  -10.9764    1.0000 </r>
       <r>  -10.9759    1.0000 </r>
       <r>  -10.9092    1.0000 </r>
       <r>  -10.9087    1.0000 </r>
       <r>  -10.8670    1.0000 </r>
       <r>  -10.7822    1.0000 </r>
       <r>  -10.7815    1.0000 </r>
       <r>  -10.7246    1.0000 </r>
       <r>  -10.7240    1.0000 </r>
       <r>  -10.4447    1.0000 </r>
       <r>  -10.4439    1.0000 </r>
       <r>  -10.3758    1.0000 </r>
       <r>  -10.3752    1.0000 </r>
       <r>  -10.2595    1.0000 </r>
       <r>  -10.2584    1.0000 </r>
       <r>  -10.1958    1.0000 </r>
       <r>  -10.0943    1.0000 </r>
       <r>  -10.0933    1.0000 </r>
       <r>   -9.9780    1.0000 </r>
       <r>   -9.9766    1.0000 </r>
       <r>   -9.9512    1.0000 </r>
       <r>   -6.0468    1.0000 </r>
       <r>   -5.8504    1.0000 </r>
       <r>   -5.8496    1.0000 </r>
       <r>   -5.7687    1.0000 </r>
       <r>   -5.7663    1.0000 </r>
       <r>   -5.7660    1.0000 </r>
       <r>   -5.7306    1.0000 </r>
       <r>   -5.7299    1.0000 </r>
       <r>   -5.7201    1.0000 </r>
       <r>   -5.7197    1.0000 </r>
       <r>   -5.6433    1.0000 </r>
       <r>   -5.6222    1.0000 </r>
       <r>   -5.6219    1.0000 </r>
       <r>   -5.6154    1.0000 </r>
       <r>   -5.6153    1.0000 </r>
       <r>   -5.4778    1.0000 </r>
       <r>   -5.4776    1.0000 </r>
       <r>   -5.3994    1.0000 </r>
       <r>   -5.3992    1.0000 </r>
       <r>   -5.2311    1.0000 </r>
       <r>   -5.1472    1.0000 </r>
       <r>   -5.0675    1.0000 </r>
       <r>   -5.0670    1.0000 </r>
       <r>   -4.9498    1.0000 </r>
       <r>   -4.9494    1.0000 </r>
       <r>   -4.9125    1.0000 </r>
       <r>   -4.9121    1.0000 </r>
       <r>   -4.9025    1.0000 </r>
       <r>   -4.9020    1.0000 </r>
       <r>   -4.7774    1.0000 </r>
       <r>   -4.6479    1.0000 </r>
       <r>   -4.6473    1.0000 </r>
       <r>   -4.5860    1.0000 </r>
       <r>   -4.5256    1.0000 </r>
       <r>   -4.4324    1.0000 </r>
       <r>   -4.4317    1.0000 </r>
       <r>   -4.3915    1.0000 </r>
       <r>   -4.3910    1.0000 </r>
       <r>   -4.3171    1.0000 </r>
       <r>   -4.3167    1.0000 </r>
       <r>   -4.2840    1.0000 </r>
       <r>   -4.2836    1.0000 </r>
       <r>   -4.1991    1.0000 </r>
       <r>   -4.1987    1.0000 </r>
       <r>   -4.1803    1.0000 </r>
       <r>   -4.1795    1.0000 </r>
       <r>   -4.1322    1.0000 </r>
       <r>   -4.1317    1.0000 </r>
       <r>   -4.1028    1.0000 </r>
       <r>   -4.1021    1.0000 </r>
       <r>   -3.9954    1.0000 </r>
       <r>   -3.9945    1.0000 </r>
       <r>   -3.9843    1.0000 </r>
       <r>   -3.9838    1.0000 </r>
       <r>   -3.9832    1.0000 </r>
       <r>   -3.9128    1.0000 </r>
       <r>   -3.9121    1.0000 </r>
       <r>   -3.8636    1.0000 </r>
       <r>   -3.8631    1.0000 </r>
       <r>   -3.6846    1.0000 </r>
       <r>   -3.6838    1.0000 </r>
       <r>   -3.6111    1.0000 </r>
       <r>   -3.5466    1.0000 </r>
       <r>   -3.5458    1.0000 </r>
       <r>   -3.5002    1.0000 </r>
       <r>   -3.4993    1.0000 </r>
       <r>   -3.4110    1.0000 </r>
       <r>   -3.3982    1.0000 </r>
       <r>   -3.3970    1.0000 </r>
       <r>   -3.3891    1.0000 </r>
       <r>   -3.3557    1.0000 </r>
       <r>   -3.3546    1.0000 </r>
       <r>   -3.2419    1.0000 </r>
       <r>   -3.2413    1.0000 </r>
       <r>   -3.0327    1.0000 </r>
       <r>   -1.5714    0.0000 </r>
       <r>   -1.5711    0.0000 </r>
       <r>   -1.5654    0.0000 </r>
       <r>   -1.5646    0.0000 </r>
       <r>   -1.2992    0.0000 </r>
       <r>   -1.2796    0.0000 </r>
       <r>   -1.2787    0.0000 </r>
       <r>   -1.2607    0.0000 </r>
       <r>   -1.1945    0.0000 </r>
       <r>   -1.1939    0.0000 </r>
       <r>   -1.1165    0.0000 </r>
       <r>   -1.1157    0.0000 </r>
       <r>   -1.0702    0.0000 </r>
       <r>   -1.0686    0.0000 </r>
       <r>   -1.0630    0.0000 </r>
       <r>   -1.0622    0.0000 </r>
       <r>   -1.0488    0.0000 </r>
       <r>   -1.0481    0.0000 </r>
       <r>   -0.9302    0.0000 </r>
       <r>   -0.9102    0.0000 </r>
       <r>   -0.9093    0.0000 </r>
       <r>   -0.8828    0.0000 </r>
       <r>   -0.8359    0.0000 </r>
       <r>   -0.8351    0.0000 </r>
       <r>   -0.8107    0.0000 </r>
       <r>   -0.5751    0.0000 </r>
       <r>   -0.4699    0.0000 </r>
       <r>   -0.4695    0.0000 </r>
       <r>   -0.4543    0.0000 </r>
       <r>   -0.4538    0.0000 </r>
       <r>   -0.4169    0.0000 </r>
       <r>   -0.3302    0.0000 </r>
       <r>   -0.3104    0.0000 </r>
       <r>   -0.3097    0.0000 </r>
       <r>   -0.2807    0.0000 </r>
       <r>   -0.2797    0.0000 </r>
       <r>   -0.2795    0.0000 </r>
       <r>   -0.2256    0.0000 </r>
       <r>   -0.2237    0.0000 </r>
       <r>   -0.1819    0.0000 </r>
       <r>   -0.1805    0.0000 </r>
       <r>   -0.0277    0.0000 </r>
       <r>   -0.0262    0.0000 </r>
       <r>   -0.0167    0.0000 </r>
       <r>    0.0848    0.0000 </r>
       <r>    0.0857    0.0000 </r>
       <r>    0.1230    0.0000 </r>
       <r>    0.1235    0.0000 </r>
       <r>    0.1801    0.0000 </r>
       <r>    0.1811    0.0000 </r>
       <r>    0.2087    0.0000 </r>
       <r>    0.2093    0.0000 </r>
       <r>    0.2633    0.0000 </r>
       <r>    0.2642    0.0000 </r>
       <r>    0.2664    0.0000 </r>
       <r>    0.2675    0.0000 </r>
       <r>    0.3148    0.0000 </r>
       <r>    0.3350    0.0000 </r>
      </set>
      <set comment="kpoint 9">
       <r>  -25.2693    1.0000 </r>
       <r>  -25.2693    1.0000 </r>
       <r>  -25.2684    1.0000 </r>
       <r>  -25.2678    1.0000 </r>
       <r>  -25.2677    1.0000 </r>
       <r>  -25.2674    1.0000 </r>
       <r>  -25.2674    1.0000 </r>
       <r>  -25.2666    1.0000 </r>
       <r>  -25.2665    1.0000 </r>
       <r>  -25.2664    1.0000 </r>
       <r>  -25.2663    1.0000 </r>
       <r>  -25.2663    1.0000 </r>
       <r>  -25.2662    1.0000 </r>
       <r>  -25.2662    1.0000 </r>
       <r>  -25.2662    1.0000 </r>
       <r>  -25.2651    1.0000 </r>
       <r>  -25.2648    1.0000 </r>
       <r>  -25.2647    1.0000 </r>
       <r>  -25.2643    1.0000 </r>
       <r>  -25.2638    1.0000 </r>
       <r>  -25.2638    1.0000 </r>
       <r>  -25.2637    1.0000 </r>
       <r>  -25.2636    1.0000 </r>
       <r>  -25.2633    1.0000 </r>
       <r>  -25.2622    1.0000 </r>
       <r>  -25.2617    1.0000 </r>
       <r>  -25.2601    1.0000 </r>
       <r>  -25.2601    1.0000 </r>
       <r>  -25.2563    1.0000 </r>
       <r>  -25.2563    1.0000 </r>
       <r>  -25.2545    1.0000 </r>
       <r>  -25.2528    1.0000 </r>
       <r>  -25.2527    1.0000 </r>
       <r>  -25.2517    1.0000 </r>
       <r>  -25.2517    1.0000 </r>
       <r>  -25.2515    1.0000 </r>
       <r>  -25.2507    1.0000 </r>
       <r>  -25.2506    1.0000 </r>
       <r>  -25.2504    1.0000 </r>
       <r>  -25.2503    1.0000 </r>
       <r>  -25.2502    1.0000 </r>
       <r>  -25.2496    1.0000 </r>
       <r>  -25.2496    1.0000 </r>
       <r>  -25.2485    1.0000 </r>
       <r>  -25.2485    1.0000 </r>
       <r>  -25.2481    1.0000 </r>
       <r>  -25.2480    1.0000 </r>
       <r>  -25.2467    1.0000 </r>
       <r>  -25.2460    1.0000 </r>
       <r>  -25.2460    1.0000 </r>
       <r>  -25.2320    1.0000 </r>
       <r>  -25.2320    1.0000 </r>
       <r>  -25.2318    1.0000 </r>
       <r>  -25.2310    1.0000 </r>
       <r>  -25.2309    1.0000 </r>
       <r>  -25.2308    1.0000 </r>
       <r>  -25.2307    1.0000 </r>
       <r>  -25.2302    1.0000 </r>
       <r>  -25.2302    1.0000 </r>
       <r>  -25.2298    1.0000 </r>
       <r>  -25.2297    1.0000 </r>
       <r>  -25.2296    1.0000 </r>
       <r>  -25.2295    1.0000 </r>
       <r>  -25.2295    1.0000 </r>
       <r>  -25.2289    1.0000 </r>
       <r>  -25.2289    1.0000 </r>
       <r>  -25.2285    1.0000 </r>
       <r>  -25.2283    1.0000 </r>
       <r>  -25.2282    1.0000 </r>
       <r>  -25.2274    1.0000 </r>
       <r>  -25.2272    1.0000 </r>
       <r>  -25.2264    1.0000 </r>
       <r>  -25.2264    1.0000 </r>
       <r>  -25.2259    1.0000 </r>
       <r>  -25.2258    1.0000 </r>
       <r>  -25.2253    1.0000 </r>
       <r>  -25.2246    1.0000 </r>
       <r>  -25.2245    1.0000 </r>
       <r>  -25.2243    1.0000 </r>
       <r>  -25.2243    1.0000 </r>
       <r>  -25.2241    1.0000 </r>
       <r>  -25.2241    1.0000 </r>
       <r>  -25.2239    1.0000 </r>
       <r>  -25.2237    1.0000 </r>
       <r>  -25.2236    1.0000 </r>
       <r>  -25.2236    1.0000 </r>
       <r>  -25.2235    1.0000 </r>
       <r>  -25.2235    1.0000 </r>
       <r>  -25.2235    1.0000 </r>
       <r>  -25.2233    1.0000 </r>
       <r>  -25.2233    1.0000 </r>
       <r>  -25.2233    1.0000 </r>
       <r>  -25.2232    1.0000 </r>
       <r>  -25.2231    1.0000 </r>
       <r>  -25.2231    1.0000 </r>
       <r>  -25.2231    1.0000 </r>
       <r>  -25.2230    1.0000 </r>
       <r>  -25.2227    1.0000 </r>
       <r>  -25.2227    1.0000 </r>
       <r>  -25.2225    1.0000 </r>
       <r>  -25.2125    1.0000 </r>
       <r>  -25.2115    1.0000 </r>
       <r>  -25.2113    1.0000 </r>
       <r>  -25.2088    1.0000 </r>
       <r>  -25.2087    1.0000 </r>
       <r>  -25.2073    1.0000 </r>
       <r>  -25.2067    1.0000 </r>
       <r>  -25.2065    1.0000 </r>
       <r>  -25.2056    1.0000 </r>
       <r>  -25.2054    1.0000 </r>
       <r>  -25.2049    1.0000 </r>
       <r>  -25.2048    1.0000 </r>
       <r>  -25.2033    1.0000 </r>
       <r>  -25.2030    1.0000 </r>
       <r>  -25.2027    1.0000 </r>
       <r>  -25.2026    1.0000 </r>
       <r>  -25.2025    1.0000 </r>
       <r>  -25.2022    1.0000 </r>
       <r>  -25.2021    1.0000 </r>
       <r>  -25.2019    1.0000 </r>
       <r>  -25.2018    1.0000 </r>
       <r>  -25.2017    1.0000 </r>
       <r>  -25.2016    1.0000 </r>
       <r>  -25.2015    1.0000 </r>
       <r>  -25.2014    1.0000 </r>
       <r>  -14.5420    1.0000 </r>
       <r>  -14.4542    1.0000 </r>
       <r>  -14.4530    1.0000 </r>
       <r>  -14.1978    1.0000 </r>
       <r>  -14.1966    1.0000 </r>
       <r>  -14.0344    1.0000 </r>
       <r>  -13.9583    1.0000 </r>
       <r>  -13.9574    1.0000 </r>
       <r>  -13.8074    1.0000 </r>
       <r>  -13.8061    1.0000 </r>
       <r>  -13.7394    1.0000 </r>
       <r>  -13.7384    1.0000 </r>
       <r>  -13.4164    1.0000 </r>
       <r>  -13.4154    1.0000 </r>
       <r>  -13.3781    1.0000 </r>
       <r>  -13.3769    1.0000 </r>
       <r>  -13.2441    1.0000 </r>
       <r>  -13.2312    1.0000 </r>
       <r>  -13.2306    1.0000 </r>
       <r>  -13.2092    1.0000 </r>
       <r>  -13.2086    1.0000 </r>
       <r>  -13.1572    1.0000 </r>
       <r>  -13.0801    1.0000 </r>
       <r>  -13.0792    1.0000 </r>
       <r>  -12.9176    1.0000 </r>
       <r>  -11.1661    1.0000 </r>
       <r>  -11.0211    1.0000 </r>
       <r>  -11.0206    1.0000 </r>
       <r>  -11.0104    1.0000 </r>
       <r>  -10.9761    1.0000 </r>
       <r>  -10.9753    1.0000 </r>
       <r>  -10.9089    1.0000 </r>
       <r>  -10.9082    1.0000 </r>
       <r>  -10.8666    1.0000 </r>
       <r>  -10.7828    1.0000 </r>
       <r>  -10.7821    1.0000 </r>
       <r>  -10.7244    1.0000 </r>
       <r>  -10.7241    1.0000 </r>
       <r>  -10.4443    1.0000 </r>
       <r>  -10.4440    1.0000 </r>
       <r>  -10.3762    1.0000 </r>
       <r>  -10.3754    1.0000 </r>
       <r>  -10.2590    1.0000 </r>
       <r>  -10.2585    1.0000 </r>
       <r>  -10.1955    1.0000 </r>
       <r>  -10.0944    1.0000 </r>
       <r>  -10.0934    1.0000 </r>
       <r>   -9.9779    1.0000 </r>
       <r>   -9.9767    1.0000 </r>
       <r>   -9.9512    1.0000 </r>
       <r>   -6.0467    1.0000 </r>
       <r>   -5.8505    1.0000 </r>
       <r>   -5.8493    1.0000 </r>
       <r>   -5.7683    1.0000 </r>
       <r>   -5.7666    1.0000 </r>
       <r>   -5.7661    1.0000 </r>
       <r>   -5.7307    1.0000 </r>
       <r>   -5.7302    1.0000 </r>
       <r>   -5.7201    1.0000 </r>
       <r>   -5.7193    1.0000 </r>
       <r>   -5.6436    1.0000 </r>
       <r>   -5.6225    1.0000 </r>
       <r>   -5.6215    1.0000 </r>
       <r>   -5.6158    1.0000 </r>
       <r>   -5.6149    1.0000 </r>
       <r>   -5.4783    1.0000 </r>
       <r>   -5.4774    1.0000 </r>
       <r>   -5.3996    1.0000 </r>
       <r>   -5.3987    1.0000 </r>
       <r>   -5.2310    1.0000 </r>
       <r>   -5.1467    1.0000 </r>
       <r>   -5.0675    1.0000 </r>
       <r>   -5.0670    1.0000 </r>
       <r>   -4.9501    1.0000 </r>
       <r>   -4.9493    1.0000 </r>
       <r>   -4.9130    1.0000 </r>
       <r>   -4.9121    1.0000 </r>
       <r>   -4.9023    1.0000 </r>
       <r>   -4.9021    1.0000 </r>
       <r>   -4.7772    1.0000 </r>
       <r>   -4.6482    1.0000 </r>
       <r>   -4.6467    1.0000 </r>
       <r>   -4.5857    1.0000 </r>
       <r>   -4.5258    1.0000 </r>
       <r>   -4.4326    1.0000 </r>
       <r>   -4.4309    1.0000 </r>
       <r>   -4.3913    1.0000 </r>
       <r>   -4.3909    1.0000 </r>
       <r>   -4.3178    1.0000 </r>
       <r>   -4.3172    1.0000 </r>
       <r>   -4.2839    1.0000 </r>
       <r>   -4.2836    1.0000 </r>
       <r>   -4.1991    1.0000 </r>
       <r>   -4.1987    1.0000 </r>
       <r>   -4.1804    1.0000 </r>
       <r>   -4.1797    1.0000 </r>
       <r>   -4.1326    1.0000 </r>
       <r>   -4.1315    1.0000 </r>
       <r>   -4.1025    1.0000 </r>
       <r>   -4.1022    1.0000 </r>
       <r>   -3.9952    1.0000 </r>
       <r>   -3.9950    1.0000 </r>
       <r>   -3.9848    1.0000 </r>
       <r>   -3.9839    1.0000 </r>
       <r>   -3.9831    1.0000 </r>
       <r>   -3.9130    1.0000 </r>
       <r>   -3.9113    1.0000 </r>
       <r>   -3.8633    1.0000 </r>
       <r>   -3.8630    1.0000 </r>
       <r>   -3.6842    1.0000 </r>
       <r>   -3.6837    1.0000 </r>
       <r>   -3.6104    1.0000 </r>
       <r>   -3.5468    1.0000 </r>
       <r>   -3.5458    1.0000 </r>
       <r>   -3.5004    1.0000 </r>
       <r>   -3.4994    1.0000 </r>
       <r>   -3.4110    1.0000 </r>
       <r>   -3.3984    1.0000 </r>
       <r>   -3.3970    1.0000 </r>
       <r>   -3.3892    1.0000 </r>
       <r>   -3.3556    1.0000 </r>
       <r>   -3.3546    1.0000 </r>
       <r>   -3.2419    1.0000 </r>
       <r>   -3.2408    1.0000 </r>
       <r>   -3.0335    1.0000 </r>
       <r>   -1.5720    0.0000 </r>
       <r>   -1.5707    0.0000 </r>
       <r>   -1.5659    0.0000 </r>
       <r>   -1.5647    0.0000 </r>
       <r>   -1.2992    0.0000 </r>
       <r>   -1.2789    0.0000 </r>
       <r>   -1.2788    0.0000 </r>
       <r>   -1.2604    0.0000 </r>
       <r>   -1.1947    0.0000 </r>
       <r>   -1.1939    0.0000 </r>
       <r>   -1.1159    0.0000 </r>
       <r>   -1.1156    0.0000 </r>
       <r>   -1.0702    0.0000 </r>
       <r>   -1.0687    0.0000 </r>
       <r>   -1.0631    0.0000 </r>
       <r>   -1.0624    0.0000 </r>
       <r>   -1.0482    0.0000 </r>
       <r>   -1.0481    0.0000 </r>
       <r>   -0.9306    0.0000 </r>
       <r>   -0.9109    0.0000 </r>
       <r>   -0.9095    0.0000 </r>
       <r>   -0.8829    0.0000 </r>
       <r>   -0.8356    0.0000 </r>
       <r>   -0.8351    0.0000 </r>
       <r>   -0.8105    0.0000 </r>
       <r>   -0.5744    0.0000 </r>
       <r>   -0.4707    0.0000 </r>
       <r>   -0.4697    0.0000 </r>
       <r>   -0.4540    0.0000 </r>
       <r>   -0.4537    0.0000 </r>
       <r>   -0.4177    0.0000 </r>
       <r>   -0.3293    0.0000 </r>
       <r>   -0.3109    0.0000 </r>
       <r>   -0.3099    0.0000 </r>
       <r>   -0.2819    0.0000 </r>
       <r>   -0.2802    0.0000 </r>
       <r>   -0.2797    0.0000 </r>
       <r>   -0.2243    0.0000 </r>
       <r>   -0.2236    0.0000 </r>
       <r>   -0.1812    0.0000 </r>
       <r>   -0.1802    0.0000 </r>
       <r>   -0.0269    0.0000 </r>
       <r>   -0.0265    0.0000 </r>
       <r>   -0.0160    0.0000 </r>
       <r>    0.0843    0.0000 </r>
       <r>    0.0857    0.0000 </r>
       <r>    0.1223    0.0000 </r>
       <r>    0.1236    0.0000 </r>
       <r>    0.1800    0.0000 </r>
       <r>    0.1811    0.0000 </r>
       <r>    0.2090    0.0000 </r>
       <r>    0.2096    0.0000 </r>
       <r>    0.2639    0.0000 </r>
       <r>    0.2645    0.0000 </r>
       <r>    0.2666    0.0000 </r>
       <r>    0.2687    0.0000 </r>
       <r>    0.3136    0.0000 </r>
       <r>    0.3367    0.0000 </r>
      </set>
      <set comment="kpoint 10">
       <r>  -25.2694    1.0000 </r>
       <r>  -25.2693    1.0000 </r>
       <r>  -25.2684    1.0000 </r>
       <r>  -25.2678    1.0000 </r>
       <r>  -25.2676    1.0000 </r>
       <r>  -25.2674    1.0000 </r>
       <r>  -25.2674    1.0000 </r>
       <r>  -25.2667    1.0000 </r>
       <r>  -25.2665    1.0000 </r>
       <r>  -25.2664    1.0000 </r>
       <r>  -25.2663    1.0000 </r>
       <r>  -25.2663    1.0000 </r>
       <r>  -25.2662    1.0000 </r>
       <r>  -25.2662    1.0000 </r>
       <r>  -25.2661    1.0000 </r>
       <r>  -25.2651    1.0000 </r>
       <r>  -25.2648    1.0000 </r>
       <r>  -25.2647    1.0000 </r>
       <r>  -25.2643    1.0000 </r>
       <r>  -25.2638    1.0000 </r>
       <r>  -25.2638    1.0000 </r>
       <r>  -25.2637    1.0000 </r>
       <r>  -25.2636    1.0000 </r>
       <r>  -25.2633    1.0000 </r>
       <r>  -25.2622    1.0000 </r>
       <r>  -25.2617    1.0000 </r>
       <r>  -25.2601    1.0000 </r>
       <r>  -25.2601    1.0000 </r>
       <r>  -25.2563    1.0000 </r>
       <r>  -25.2563    1.0000 </r>
       <r>  -25.2545    1.0000 </r>
       <r>  -25.2528    1.0000 </r>
       <r>  -25.2526    1.0000 </r>
       <r>  -25.2518    1.0000 </r>
       <r>  -25.2517    1.0000 </r>
       <r>  -25.2515    1.0000 </r>
       <r>  -25.2507    1.0000 </r>
       <r>  -25.2506    1.0000 </r>
       <r>  -25.2504    1.0000 </r>
       <r>  -25.2502    1.0000 </r>
       <r>  -25.2502    1.0000 </r>
       <r>  -25.2496    1.0000 </r>
       <r>  -25.2496    1.0000 </r>
       <r>  -25.2486    1.0000 </r>
       <r>  -25.2484    1.0000 </r>
       <r>  -25.2481    1.0000 </r>
       <r>  -25.2480    1.0000 </r>
       <r>  -25.2467    1.0000 </r>
       <r>  -25.2460    1.0000 </r>
       <r>  -25.2460    1.0000 </r>
       <r>  -25.2321    1.0000 </r>
       <r>  -25.2320    1.0000 </r>
       <r>  -25.2317    1.0000 </r>
       <r>  -25.2311    1.0000 </r>
       <r>  -25.2309    1.0000 </r>
       <r>  -25.2308    1.0000 </r>
       <r>  -25.2307    1.0000 </r>
       <r>  -25.2302    1.0000 </r>
       <r>  -25.2302    1.0000 </r>
       <r>  -25.2298    1.0000 </r>
       <r>  -25.2297    1.0000 </r>
       <r>  -25.2296    1.0000 </r>
       <r>  -25.2295    1.0000 </r>
       <r>  -25.2294    1.0000 </r>
       <r>  -25.2289    1.0000 </r>
       <r>  -25.2289    1.0000 </r>
       <r>  -25.2285    1.0000 </r>
       <r>  -25.2284    1.0000 </r>
       <r>  -25.2282    1.0000 </r>
       <r>  -25.2275    1.0000 </r>
       <r>  -25.2272    1.0000 </r>
       <r>  -25.2264    1.0000 </r>
       <r>  -25.2263    1.0000 </r>
       <r>  -25.2259    1.0000 </r>
       <r>  -25.2258    1.0000 </r>
       <r>  -25.2253    1.0000 </r>
       <r>  -25.2246    1.0000 </r>
       <r>  -25.2244    1.0000 </r>
       <r>  -25.2243    1.0000 </r>
       <r>  -25.2243    1.0000 </r>
       <r>  -25.2242    1.0000 </r>
       <r>  -25.2241    1.0000 </r>
       <r>  -25.2240    1.0000 </r>
       <r>  -25.2237    1.0000 </r>
       <r>  -25.2236    1.0000 </r>
       <r>  -25.2236    1.0000 </r>
       <r>  -25.2235    1.0000 </r>
       <r>  -25.2235    1.0000 </r>
       <r>  -25.2234    1.0000 </r>
       <r>  -25.2233    1.0000 </r>
       <r>  -25.2233    1.0000 </r>
       <r>  -25.2232    1.0000 </r>
       <r>  -25.2232    1.0000 </r>
       <r>  -25.2231    1.0000 </r>
       <r>  -25.2231    1.0000 </r>
       <r>  -25.2231    1.0000 </r>
       <r>  -25.2230    1.0000 </r>
       <r>  -25.2227    1.0000 </r>
       <r>  -25.2227    1.0000 </r>
       <r>  -25.2226    1.0000 </r>
       <r>  -25.2125    1.0000 </r>
       <r>  -25.2116    1.0000 </r>
       <r>  -25.2113    1.0000 </r>
       <r>  -25.2088    1.0000 </r>
       <r>  -25.2087    1.0000 </r>
       <r>  -25.2073    1.0000 </r>
       <r>  -25.2067    1.0000 </r>
       <r>  -25.2065    1.0000 </r>
       <r>  -25.2056    1.0000 </r>
       <r>  -25.2054    1.0000 </r>
       <r>  -25.2049    1.0000 </r>
       <r>  -25.2048    1.0000 </r>
       <r>  -25.2033    1.0000 </r>
       <r>  -25.2030    1.0000 </r>
       <r>  -25.2028    1.0000 </r>
       <r>  -25.2026    1.0000 </r>
       <r>  -25.2025    1.0000 </r>
       <r>  -25.2023    1.0000 </r>
       <r>  -25.2021    1.0000 </r>
       <r>  -25.2019    1.0000 </r>
       <r>  -25.2018    1.0000 </r>
       <r>  -25.2017    1.0000 </r>
       <r>  -25.2016    1.0000 </r>
       <r>  -25.2016    1.0000 </r>
       <r>  -25.2014    1.0000 </r>
       <r>  -14.5419    1.0000 </r>
       <r>  -14.4541    1.0000 </r>
       <r>  -14.4531    1.0000 </r>
       <r>  -14.1977    1.0000 </r>
       <r>  -14.1968    1.0000 </r>
       <r>  -14.0343    1.0000 </r>
       <r>  -13.9582    1.0000 </r>
       <r>  -13.9574    1.0000 </r>
       <r>  -13.8071    1.0000 </r>
       <r>  -13.8065    1.0000 </r>
       <r>  -13.7392    1.0000 </r>
       <r>  -13.7385    1.0000 </r>
       <r>  -13.4161    1.0000 </r>
       <r>  -13.4156    1.0000 </r>
       <r>  -13.3779    1.0000 </r>
       <r>  -13.3774    1.0000 </r>
       <r>  -13.2440    1.0000 </r>
       <r>  -13.2311    1.0000 </r>
       <r>  -13.2305    1.0000 </r>
       <r>  -13.2090    1.0000 </r>
       <r>  -13.2085    1.0000 </r>
       <r>  -13.1574    1.0000 </r>
       <r>  -13.0799    1.0000 </r>
       <r>  -13.0795    1.0000 </r>
       <r>  -12.9177    1.0000 </r>
       <r>  -11.1660    1.0000 </r>
       <r>  -11.0211    1.0000 </r>
       <r>  -11.0206    1.0000 </r>
       <r>  -11.0100    1.0000 </r>
       <r>  -10.9763    1.0000 </r>
       <r>  -10.9755    1.0000 </r>
       <r>  -10.9090    1.0000 </r>
       <r>  -10.9085    1.0000 </r>
       <r>  -10.8668    1.0000 </r>
       <r>  -10.7823    1.0000 </r>
       <r>  -10.7821    1.0000 </r>
       <r>  -10.7246    1.0000 </r>
       <r>  -10.7240    1.0000 </r>
       <r>  -10.4446    1.0000 </r>
       <r>  -10.4439    1.0000 </r>
       <r>  -10.3760    1.0000 </r>
       <r>  -10.3753    1.0000 </r>
       <r>  -10.2592    1.0000 </r>
       <r>  -10.2585    1.0000 </r>
       <r>  -10.1956    1.0000 </r>
       <r>  -10.0944    1.0000 </r>
       <r>  -10.0933    1.0000 </r>
       <r>   -9.9779    1.0000 </r>
       <r>   -9.9766    1.0000 </r>
       <r>   -9.9512    1.0000 </r>
       <r>   -6.0468    1.0000 </r>
       <r>   -5.8505    1.0000 </r>
       <r>   -5.8494    1.0000 </r>
       <r>   -5.7685    1.0000 </r>
       <r>   -5.7665    1.0000 </r>
       <r>   -5.7660    1.0000 </r>
       <r>   -5.7307    1.0000 </r>
       <r>   -5.7301    1.0000 </r>
       <r>   -5.7199    1.0000 </r>
       <r>   -5.7197    1.0000 </r>
       <r>   -5.6434    1.0000 </r>
       <r>   -5.6223    1.0000 </r>
       <r>   -5.6217    1.0000 </r>
       <r>   -5.6155    1.0000 </r>
       <r>   -5.6151    1.0000 </r>
       <r>   -5.4779    1.0000 </r>
       <r>   -5.4776    1.0000 </r>
       <r>   -5.3995    1.0000 </r>
       <r>   -5.3990    1.0000 </r>
       <r>   -5.2311    1.0000 </r>
       <r>   -5.1469    1.0000 </r>
       <r>   -5.0673    1.0000 </r>
       <r>   -5.0672    1.0000 </r>
       <r>   -4.9499    1.0000 </r>
       <r>   -4.9494    1.0000 </r>
       <r>   -4.9127    1.0000 </r>
       <r>   -4.9122    1.0000 </r>
       <r>   -4.9024    1.0000 </r>
       <r>   -4.9021    1.0000 </r>
       <r>   -4.7773    1.0000 </r>
       <r>   -4.6481    1.0000 </r>
       <r>   -4.6470    1.0000 </r>
       <r>   -4.5859    1.0000 </r>
       <r>   -4.5257    1.0000 </r>
       <r>   -4.4324    1.0000 </r>
       <r>   -4.4313    1.0000 </r>
       <r>   -4.3914    1.0000 </r>
       <r>   -4.3909    1.0000 </r>
       <r>   -4.3175    1.0000 </r>
       <r>   -4.3169    1.0000 </r>
       <r>   -4.2840    1.0000 </r>
       <r>   -4.2834    1.0000 </r>
       <r>   -4.1991    1.0000 </r>
       <r>   -4.1987    1.0000 </r>
       <r>   -4.1802    1.0000 </r>
       <r>   -4.1797    1.0000 </r>
       <r>   -4.1324    1.0000 </r>
       <r>   -4.1316    1.0000 </r>
       <r>   -4.1027    1.0000 </r>
       <r>   -4.1021    1.0000 </r>
       <r>   -3.9953    1.0000 </r>
       <r>   -3.9947    1.0000 </r>
       <r>   -3.9846    1.0000 </r>
       <r>   -3.9838    1.0000 </r>
       <r>   -3.9831    1.0000 </r>
       <r>   -3.9128    1.0000 </r>
       <r>   -3.9118    1.0000 </r>
       <r>   -3.8635    1.0000 </r>
       <r>   -3.8630    1.0000 </r>
       <r>   -3.6844    1.0000 </r>
       <r>   -3.6838    1.0000 </r>
       <r>   -3.6108    1.0000 </r>
       <r>   -3.5467    1.0000 </r>
       <r>   -3.5458    1.0000 </r>
       <r>   -3.5003    1.0000 </r>
       <r>   -3.4993    1.0000 </r>
       <r>   -3.4110    1.0000 </r>
       <r>   -3.3983    1.0000 </r>
       <r>   -3.3970    1.0000 </r>
       <r>   -3.3892    1.0000 </r>
       <r>   -3.3556    1.0000 </r>
       <r>   -3.3546    1.0000 </r>
       <r>   -3.2420    1.0000 </r>
       <r>   -3.2410    1.0000 </r>
       <r>   -3.0331    1.0000 </r>
       <r>   -1.5717    0.0000 </r>
       <r>   -1.5709    0.0000 </r>
       <r>   -1.5655    0.0000 </r>
       <r>   -1.5648    0.0000 </r>
       <r>   -1.2992    0.0000 </r>
       <r>   -1.2792    0.0000 </r>
       <r>   -1.2788    0.0000 </r>
       <r>   -1.2606    0.0000 </r>
       <r>   -1.1944    0.0000 </r>
       <r>   -1.1940    0.0000 </r>
       <r>   -1.1162    0.0000 </r>
       <r>   -1.1157    0.0000 </r>
       <r>   -1.0702    0.0000 </r>
       <r>   -1.0686    0.0000 </r>
       <r>   -1.0629    0.0000 </r>
       <r>   -1.0625    0.0000 </r>
       <r>   -1.0485    0.0000 </r>
       <r>   -1.0481    0.0000 </r>
       <r>   -0.9304    0.0000 </r>
       <r>   -0.9105    0.0000 </r>
       <r>   -0.9094    0.0000 </r>
       <r>   -0.8828    0.0000 </r>
       <r>   -0.8358    0.0000 </r>
       <r>   -0.8351    0.0000 </r>
       <r>   -0.8106    0.0000 </r>
       <r>   -0.5747    0.0000 </r>
       <r>   -0.4704    0.0000 </r>
       <r>   -0.4695    0.0000 </r>
       <r>   -0.4542    0.0000 </r>
       <r>   -0.4537    0.0000 </r>
       <r>   -0.4173    0.0000 </r>
       <r>   -0.3298    0.0000 </r>
       <r>   -0.3106    0.0000 </r>
       <r>   -0.3098    0.0000 </r>
       <r>   -0.2814    0.0000 </r>
       <r>   -0.2799    0.0000 </r>
       <r>   -0.2797    0.0000 </r>
       <r>   -0.2250    0.0000 </r>
       <r>   -0.2236    0.0000 </r>
       <r>   -0.1817    0.0000 </r>
       <r>   -0.1802    0.0000 </r>
       <r>   -0.0273    0.0000 </r>
       <r>   -0.0264    0.0000 </r>
       <r>   -0.0163    0.0000 </r>
       <r>    0.0845    0.0000 </r>
       <r>    0.0857    0.0000 </r>
       <r>    0.1227    0.0000 </r>
       <r>    0.1235    0.0000 </r>
       <r>    0.1802    0.0000 </r>
       <r>    0.1810    0.0000 </r>
       <r>    0.2088    0.0000 </r>
       <r>    0.2095    0.0000 </r>
       <r>    0.2639    0.0000 </r>
       <r>    0.2648    0.0000 </r>
       <r>    0.2676    0.0000 </r>
       <r>    0.2699    0.0000 </r>
       <r>    0.3232    0.0000 </r>
       <r>    0.3336    0.0000 </r>
      </set>
     </set>
    </set>
   </array>
  </eigenvalues>
  <separator name="orbital magnetization" >
   <v name="MAGDIPOLOUT">      0.00000000      0.00000000      0.00000000</v>
  </separator>
  <dos>
   <i name="efermi">     -2.56030116 </i>
   <total>
    <array>
     <dimension dim="1">gridpoints</dimension>
     <dimension dim="2">spin</dimension>
     <field>energy</field>
     <field>total</field>
     <field>integrated</field>
     <set>
      <set comment="spin 1">
       <r>   -26.5524     0.0000     0.0000 </r>
       <r>   -26.4584     0.0000     0.0000 </r>
       <r>   -26.3643     0.0000     0.0000 </r>
       <r>   -26.2702     0.0000     0.0000 </r>
       <r>   -26.1762     0.0000     0.0000 </r>
       <r>   -26.0821     0.0000     0.0000 </r>
       <r>   -25.9881     0.0000     0.0000 </r>
       <r>   -25.8940     0.0000     0.0000 </r>
       <r>   -25.7999     0.0000     0.0000 </r>
       <r>   -25.7059     0.0000     0.0000 </r>
       <r>   -25.6118     0.0000     0.0000 </r>
       <r>   -25.5177     0.0000     0.0000 </r>
       <r>   -25.4237     0.0026     0.0002 </r>
       <r>   -25.3296    28.8093     2.7102 </r>
       <r>   -25.2355  1284.0923   123.4967 </r>
       <r>   -25.1415  1315.6453   247.2512 </r>
       <r>   -25.0474    29.2202   249.9997 </r>
       <r>   -24.9533     0.0027   250.0000 </r>
       <r>   -24.8593     0.0000   250.0000 </r>
       <r>   -24.7652     0.0000   250.0000 </r>
       <r>   -24.6712     0.0000   250.0000 </r>
       <r>   -24.5771     0.0000   250.0000 </r>
       <r>   -24.4830     0.0000   250.0000 </r>
       <r>   -24.3890     0.0000   250.0000 </r>
       <r>   -24.2949     0.0000   250.0000 </r>
       <r>   -24.2008     0.0000   250.0000 </r>
       <r>   -24.1068     0.0000   250.0000 </r>
       <r>   -24.0127     0.0000   250.0000 </r>
       <r>   -23.9186     0.0000   250.0000 </r>
       <r>   -23.8246     0.0000   250.0000 </r>
       <r>   -23.7305     0.0000   250.0000 </r>
       <r>   -23.6365     0.0000   250.0000 </r>
       <r>   -23.5424     0.0000   250.0000 </r>
       <r>   -23.4483     0.0000   250.0000 </r>
       <r>   -23.3543     0.0000   250.0000 </r>
       <r>   -23.2602     0.0000   250.0000 </r>
       <r>   -23.1661     0.0000   250.0000 </r>
       <r>   -23.0721     0.0000   250.0000 </r>
       <r>   -22.9780     0.0000   250.0000 </r>
       <r>   -22.8839     0.0000   250.0000 </r>
       <r>   -22.7899     0.0000   250.0000 </r>
       <r>   -22.6958     0.0000   250.0000 </r>
       <r>   -22.6018     0.0000   250.0000 </r>
       <r>   -22.5077     0.0000   250.0000 </r>
       <r>   -22.4136     0.0000   250.0000 </r>
       <r>   -22.3196     0.0000   250.0000 </r>
       <r>   -22.2255     0.0000   250.0000 </r>
       <r>   -22.1314     0.0000   250.0000 </r>
       <r>   -22.0374     0.0000   250.0000 </r>
       <r>   -21.9433     0.0000   250.0000 </r>
       <r>   -21.8492     0.0000   250.0000 </r>
       <r>   -21.7552     0.0000   250.0000 </r>
       <r>   -21.6611     0.0000   250.0000 </r>
       <r>   -21.5671     0.0000   250.0000 </r>
       <r>   -21.4730     0.0000   250.0000 </r>
       <r>   -21.3789     0.0000   250.0000 </r>
       <r>   -21.2849     0.0000   250.0000 </r>
       <r>   -21.1908     0.0000   250.0000 </r>
       <r>   -21.0967     0.0000   250.0000 </r>
       <r>   -21.0027     0.0000   250.0000 </r>
       <r>   -20.9086     0.0000   250.0000 </r>
       <r>   -20.8145     0.0000   250.0000 </r>
       <r>   -20.7205     0.0000   250.0000 </r>
       <r>   -20.6264     0.0000   250.0000 </r>
       <r>   -20.5324     0.0000   250.0000 </r>
       <r>   -20.4383     0.0000   250.0000 </r>
       <r>   -20.3442     0.0000   250.0000 </r>
       <r>   -20.2502     0.0000   250.0000 </r>
       <r>   -20.1561     0.0000   250.0000 </r>
       <r>   -20.0620     0.0000   250.0000 </r>
       <r>   -19.9680     0.0000   250.0000 </r>
       <r>   -19.8739     0.0000   250.0000 </r>
       <r>   -19.7798     0.0000   250.0000 </r>
       <r>   -19.6858     0.0000   250.0000 </r>
       <r>   -19.5917     0.0000   250.0000 </r>
       <r>   -19.4977     0.0000   250.0000 </r>
       <r>   -19.4036     0.0000   250.0000 </r>
       <r>   -19.3095     0.0000   250.0000 </r>
       <r>   -19.2155     0.0000   250.0000 </r>
       <r>   -19.1214     0.0000   250.0000 </r>
       <r>   -19.0273     0.0000   250.0000 </r>
       <r>   -18.9333     0.0000   250.0000 </r>
       <r>   -18.8392     0.0000   250.0000 </r>
       <r>   -18.7451     0.0000   250.0000 </r>
       <r>   -18.6511     0.0000   250.0000 </r>
       <r>   -18.5570     0.0000   250.0000 </r>
       <r>   -18.4630     0.0000   250.0000 </r>
       <r>   -18.3689     0.0000   250.0000 </r>
       <r>   -18.2748     0.0000   250.0000 </r>
       <r>   -18.1808     0.0000   250.0000 </r>
       <r>   -18.0867     0.0000   250.0000 </r>
       <r>   -17.9926     0.0000   250.0000 </r>
       <r>   -17.8986     0.0000   250.0000 </r>
       <r>   -17.8045     0.0000   250.0000 </r>
       <r>   -17.7104     0.0000   250.0000 </r>
       <r>   -17.6164     0.0000   250.0000 </r>
       <r>   -17.5223     0.0000   250.0000 </r>
       <r>   -17.4283     0.0000   250.0000 </r>
       <r>   -17.3342     0.0000   250.0000 </r>
       <r>   -17.2401     0.0000   250.0000 </r>
       <r>   -17.1461     0.0000   250.0000 </r>
       <r>   -17.0520     0.0000   250.0000 </r>
       <r>   -16.9579     0.0000   250.0000 </r>
       <r>   -16.8639     0.0000   250.0000 </r>
       <r>   -16.7698     0.0000   250.0000 </r>
       <r>   -16.6757     0.0000   250.0000 </r>
       <r>   -16.5817     0.0000   250.0000 </r>
       <r>   -16.4876     0.0000   250.0000 </r>
       <r>   -16.3935     0.0000   250.0000 </r>
       <r>   -16.2995     0.0000   250.0000 </r>
       <r>   -16.2054     0.0000   250.0000 </r>
       <r>   -16.1114     0.0000   250.0000 </r>
       <r>   -16.0173     0.0000   250.0000 </r>
       <r>   -15.9232     0.0000   250.0000 </r>
       <r>   -15.8292     0.0000   250.0000 </r>
       <r>   -15.7351     0.0000   250.0000 </r>
       <r>   -15.6410     0.0000   250.0000 </r>
       <r>   -15.5470     0.0000   250.0000 </r>
       <r>   -15.4529     0.0000   250.0000 </r>
       <r>   -15.3588     0.0000   250.0000 </r>
       <r>   -15.2648     0.0000   250.0000 </r>
       <r>   -15.1707     0.0000   250.0000 </r>
       <r>   -15.0767     0.0000   250.0000 </r>
       <r>   -14.9826     0.0000   250.0000 </r>
       <r>   -14.8885     0.0000   250.0000 </r>
       <r>   -14.7945     0.0000   250.0000 </r>
       <r>   -14.7004     0.0117   250.0011 </r>
       <r>   -14.6063     3.3260   250.3140 </r>
       <r>   -14.5123    17.6325   251.9725 </r>
       <r>   -14.4182    21.1439   253.9614 </r>
       <r>   -14.3241    20.9462   255.9317 </r>
       <r>   -14.2301    19.4729   257.7634 </r>
       <r>   -14.1360    25.6165   260.1730 </r>
       <r>   -14.0420    18.4161   261.9052 </r>
       <r>   -13.9479    27.5890   264.5004 </r>
       <r>   -13.8538    18.8198   266.2706 </r>
       <r>   -13.7598    30.4751   269.1372 </r>
       <r>   -13.6657    19.5530   270.9765 </r>
       <r>   -13.5716    35.9070   274.3540 </r>
       <r>   -13.4776    22.7232   276.4914 </r>
       <r>   -13.3835    41.6232   280.4067 </r>
       <r>   -13.2894    31.9581   283.4128 </r>
       <r>   -13.1954    65.7982   289.6020 </r>
       <r>   -13.1013    44.1094   293.7511 </r>
       <r>   -13.0073    36.8291   297.2154 </r>
       <r>   -12.9132    24.9032   299.5579 </r>
       <r>   -12.8191     4.6790   299.9980 </r>
       <r>   -12.7251     0.0214   300.0000 </r>
       <r>   -12.6310     0.0000   300.0000 </r>
       <r>   -12.5369     0.0000   300.0000 </r>
       <r>   -12.4429     0.0000   300.0000 </r>
       <r>   -12.3488     0.0000   300.0000 </r>
       <r>   -12.2547     0.0000   300.0000 </r>
       <r>   -12.1607     0.0000   300.0000 </r>
       <r>   -12.0666     0.0000   300.0000 </r>
       <r>   -11.9726     0.0000   300.0000 </r>
       <r>   -11.8785     0.0000   300.0000 </r>
       <r>   -11.7844     0.0000   300.0000 </r>
       <r>   -11.6904     0.0000   300.0000 </r>
       <r>   -11.5963     0.0000   300.0000 </r>
       <r>   -11.5022     0.0000   300.0000 </r>
       <r>   -11.4082     0.0000   300.0000 </r>
       <r>   -11.3141     0.0001   300.0000 </r>
       <r>   -11.2200     0.5589   300.0526 </r>
       <r>   -11.1260    17.3108   301.6809 </r>
       <r>   -11.0319    43.8724   305.8077 </r>
       <r>   -10.9379    67.0157   312.1115 </r>
       <r>   -10.8438    55.5241   317.3343 </r>
       <r>   -10.7497    32.9442   320.4331 </r>
       <r>   -10.6557    39.2375   324.1239 </r>
       <r>   -10.5616    25.7667   326.5476 </r>
       <r>   -10.4675    34.5111   329.7939 </r>
       <r>   -10.3735    26.1136   332.2502 </r>
       <r>   -10.2794    31.7432   335.2361 </r>
       <r>   -10.1853    32.5724   338.3000 </r>
       <r>   -10.0913    34.8049   341.5739 </r>
       <r>    -9.9972    45.5207   345.8557 </r>
       <r>    -9.9032    41.1490   349.7263 </r>
       <r>    -9.8091     2.9079   349.9999 </r>
       <r>    -9.7150     0.0013   350.0000 </r>
       <r>    -9.6210     0.0000   350.0000 </r>
       <r>    -9.5269     0.0000   350.0000 </r>
       <r>    -9.4328     0.0000   350.0000 </r>
       <r>    -9.3388     0.0000   350.0000 </r>
       <r>    -9.2447     0.0000   350.0000 </r>
       <r>    -9.1506     0.0000   350.0000 </r>
       <r>    -9.0566     0.0000   350.0000 </r>
       <r>    -8.9625     0.0000   350.0000 </r>
       <r>    -8.8685     0.0000   350.0000 </r>
       <r>    -8.7744     0.0000   350.0000 </r>
       <r>    -8.6803     0.0000   350.0000 </r>
       <r>    -8.5863     0.0000   350.0000 </r>
       <r>    -8.4922     0.0000   350.0000 </r>
       <r>    -8.3981     0.0000   350.0000 </r>
       <r>    -8.3041     0.0000   350.0000 </r>
       <r>    -8.2100     0.0000   350.0000 </r>
       <r>    -8.1159     0.0000   350.0000 </r>
       <r>    -8.0219     0.0000   350.0000 </r>
       <r>    -7.9278     0.0000   350.0000 </r>
       <r>    -7.8337     0.0000   350.0000 </r>
       <r>    -7.7397     0.0000   350.0000 </r>
       <r>    -7.6456     0.0000   350.0000 </r>
       <r>    -7.5516     0.0000   350.0000 </r>
       <r>    -7.4575     0.0000   350.0000 </r>
       <r>    -7.3634     0.0000   350.0000 </r>
       <r>    -7.2694     0.0000   350.0000 </r>
       <r>    -7.1753     0.0000   350.0000 </r>
       <r>    -7.0812     0.0000   350.0000 </r>
       <r>    -6.9872     0.0000   350.0000 </r>
       <r>    -6.8931     0.0000   350.0000 </r>
       <r>    -6.7990     0.0000   350.0000 </r>
       <r>    -6.7050     0.0000   350.0000 </r>
       <r>    -6.6109     0.0000   350.0000 </r>
       <r>    -6.5169     0.0000   350.0000 </r>
       <r>    -6.4228     0.0000   350.0000 </r>
       <r>    -6.3287     0.0000   350.0000 </r>
       <r>    -6.2347     0.0000   350.0000 </r>
       <r>    -6.1406     0.0318   350.0030 </r>
       <r>    -6.0465     4.6373   350.4392 </r>
       <r>    -5.9525    19.5503   352.2782 </r>
       <r>    -5.8584    22.6519   354.4089 </r>
       <r>    -5.7643    81.4546   362.0708 </r>
       <r>    -5.6703   102.3011   371.6936 </r>
       <r>    -5.5762    56.8182   377.0382 </r>
       <r>    -5.4822    31.3916   379.9910 </r>
       <r>    -5.3881    40.4287   383.7939 </r>
       <r>    -5.2940    27.7852   386.4074 </r>
       <r>    -5.2000    40.7460   390.2402 </r>
       <r>    -5.1059    30.9563   393.1520 </r>
       <r>    -5.0118    40.1265   396.9265 </r>
       <r>    -4.9178    51.2561   401.7478 </r>
       <r>    -4.8237    69.7102   408.3050 </r>
       <r>    -4.7296    21.6085   410.3376 </r>
       <r>    -4.6356    38.5627   413.9649 </r>
       <r>    -4.5415    52.2996   418.8844 </r>
       <r>    -4.4475    21.2183   420.8803 </r>
       <r>    -4.3534    69.5826   427.4255 </r>
       <r>    -4.2593    88.0510   435.7079 </r>
       <r>    -4.1653    88.1788   444.0023 </r>
       <r>    -4.0712    63.1180   449.9394 </r>
       <r>    -3.9771    49.8441   454.6280 </r>
       <r>    -3.8831    54.0018   459.7076 </r>
       <r>    -3.7890    43.8716   463.8343 </r>
       <r>    -3.6949    50.0579   468.5429 </r>
       <r>    -3.6009    46.0986   472.8791 </r>
       <r>    -3.5068    54.1262   477.9705 </r>
       <r>    -3.4128    76.8603   485.2002 </r>
       <r>    -3.3187    91.7124   493.8270 </r>
       <r>    -3.2246    27.0670   496.3731 </r>
       <r>    -3.1306    11.9947   497.5013 </r>
       <r>    -3.0365     9.9549   498.4377 </r>
       <r>    -2.9424     7.4229   499.1359 </r>
       <r>    -2.8484     7.6786   499.8582 </r>
       <r>    -2.7543     1.5001   499.9993 </r>
       <r>    -2.6602     0.0072   500.0000 </r>
       <r>    -2.5662     0.0000   500.0000 </r>
       <r>    -2.4721     0.0000   500.0000 </r>
       <r>    -2.3781     0.0000   500.0000 </r>
       <r>    -2.2840     0.0000   500.0000 </r>
       <r>    -2.1899     0.0000   500.0000 </r>
       <r>    -2.0959     0.0000   500.0000 </r>
       <r>    -2.0018     0.0017   500.0002 </r>
       <r>    -1.9077     0.4783   500.0452 </r>
       <r>    -1.8137     0.8534   500.1254 </r>
       <r>    -1.7196     4.2474   500.5250 </r>
       <r>    -1.6255    19.4421   502.3538 </r>
       <r>    -1.5315    39.7931   506.0968 </r>
       <r>    -1.4374    39.6051   509.8222 </r>
       <r>    -1.3434    21.8023   511.8730 </r>
       <r>    -1.2493    66.4887   518.1272 </r>
       <r>    -1.1552    76.9272   525.3633 </r>
       <r>    -1.0612    45.3049   529.6248 </r>
       <r>    -0.9671    51.4512   534.4645 </r>
       <r>    -0.8730    85.3798   542.4957 </r>
       <r>    -0.7790    46.5234   546.8718 </r>
       <r>    -0.6849    31.0145   549.7892 </r>
       <r>    -0.5908     5.2525   550.2832 </r>
       <r>    -0.4968    19.2948   552.0982 </r>
       <r>    -0.4027    69.3992   558.6261 </r>
       <r>    -0.3087    66.8358   564.9129 </r>
       <r>    -0.2146    97.9606   574.1275 </r>
       <r>    -0.1205    68.8346   580.6023 </r>
       <r>    -0.0265    59.3221   586.1824 </r>
       <r>     0.0676    53.0877   591.1760 </r>
       <r>     0.1617    65.4509   597.3326 </r>
       <r>     0.2557   104.7363   607.1844 </r>
       <r>     0.3498    67.1336   613.4993 </r>
       <r>     0.4439    26.1024   615.9546 </r>
       <r>     0.5379     0.4829   616.0000 </r>
       <r>     0.6320     0.0000   616.0000 </r>
       <r>     0.7261     0.0000   616.0000 </r>
       <r>     0.8201     0.0000   616.0000 </r>
       <r>     0.9142     0.0000   616.0000 </r>
       <r>     1.0082     0.0000   616.0000 </r>
       <r>     1.1023     0.0000   616.0000 </r>
       <r>     1.1964     0.0000   616.0000 </r>
       <r>     1.2904     0.0000   616.0000 </r>
       <r>     1.3845     0.0000   616.0000 </r>
       <r>     1.4786     0.0000   616.0000 </r>
       <r>     1.5726     0.0000   616.0000 </r>
       <r>     1.6667     0.0000   616.0000 </r>
      </set>
     </set>
    </array>
   </total>
  </dos>
 </calculation>
 <structure name="finalpos" >
  <crystal>
   <varray name="basis" >
    <v>      21.32465726      -0.00000000       0.00000000 </v>
    <v>     -10.66232863      18.46769492       0.00000000 </v>
    <v>       0.00000000       0.00000000      26.60855257 </v>
   </varray>
   <i name="volume">  10478.90738675 </i>
   <varray name="rec_basis" >
    <v>       0.04689407       0.02707430      -0.00000000 </v>
    <v>       0.00000000       0.05414861      -0.00000000 </v>
    <v>       0.00000000       0.00000000       0.03758190 </v>
   </varray>
  </crystal>
  <varray name="positions" >
   <v>       0.13333333       0.06666667       0.53165059 </v>
   <v>       0.33333333       0.06666667       0.53165059 </v>
   <v>       0.53333333       0.06666667       0.53165059 </v>
   <v>       0.73333333       0.06666667       0.53165059 </v>
   <v>       0.93333333       0.06666667       0.53165059 </v>
   <v>       0.13333333       0.26666667       0.53165059 </v>
   <v>       0.33333333       0.26666667       0.53165059 </v>
   <v>       0.53333333       0.26666667       0.53165059 </v>
   <v>       0.73333333       0.26666667       0.53165059 </v>
   <v>       0.93333333       0.26666667       0.53165059 </v>
   <v>       0.13333333       0.46666667       0.53165059 </v>
   <v>       0.33333333       0.46666667       0.53165059 </v>
   <v>       0.53333333       0.46666667       0.53165059 </v>
   <v>       0.73333333       0.46666667       0.53165059 </v>
   <v>       0.93333333       0.46666667       0.53165059 </v>
   <v>       0.13333333       0.66666667       0.53165059 </v>
   <v>       0.33333333       0.66666667       0.53165059 </v>
   <v>       0.53333333       0.66666667       0.53165059 </v>
   <v>       0.73333333       0.66666667       0.53165059 </v>
   <v>       0.93333333       0.66666667       0.53165059 </v>
   <v>       0.13333333       0.86666667       0.53165059 </v>
   <v>       0.33333333       0.86666667       0.53165059 </v>
   <v>       0.53333333       0.86666667       0.53165059 </v>
   <v>       0.73333333       0.86666667       0.53165059 </v>
   <v>       0.93333333       0.86666667       0.53165059 </v>
   <v>       0.06637340       0.13333333       0.46805615 </v>
   <v>       0.26666667       0.13333333       0.46834941 </v>
   <v>       0.46666667       0.13333333       0.46834941 </v>
   <v>       0.66666667       0.13333333       0.46834941 </v>
   <v>       0.86666667       0.13333333       0.46834941 </v>
   <v>       0.06666667       0.33333333       0.46834941 </v>
   <v>       0.26666667       0.33333333       0.46834941 </v>
   <v>       0.46666667       0.33333333       0.46834941 </v>
   <v>       0.66666667       0.33333333       0.46834941 </v>
   <v>       0.86666667       0.33333333       0.46834941 </v>
   <v>       0.06666667       0.53333333       0.46834941 </v>
   <v>       0.26666667       0.53333333       0.46834941 </v>
   <v>       0.46666667       0.53333333       0.46834941 </v>
   <v>       0.66666667       0.53333333       0.46834941 </v>
   <v>       0.86666667       0.53333333       0.46834941 </v>
   <v>       0.06666667       0.73333333       0.46834941 </v>
   <v>       0.26666667       0.73333333       0.46834941 </v>
   <v>       0.46666667       0.73333333       0.46834941 </v>
   <v>       0.66666667       0.73333333       0.46834941 </v>
   <v>       0.86666667       0.73333333       0.46834941 </v>
   <v>       0.06666667       0.93333333       0.46834941 </v>
   <v>       0.26666667       0.93333333       0.46834941 </v>
   <v>       0.46666667       0.93333333       0.46834941 </v>
   <v>       0.66666667       0.93333333       0.46834941 </v>
   <v>       0.86666667       0.93333333       0.46834941 </v>
  </varray>
 </structure>
</modeling>
