Buckled Bismuth
   1.00000000000000
     7.9875254057999996    0.0000000000000000    0.0000000000000000
     0.0000000000000000    4.2600002289000001    0.0000000000000000
     0.0000000000000000    0.0000000000000000   17.0000000000000000
   Bi   Sb
     2     2
Direct
  0.1636930487554933  0.0000000000000000  0.5474961807842487
  0.6636930487554934  0.5000000000000000  0.5474961807842487
  0.3363069512445067  0.5000000000000000  0.4525038192157513
  0.8363069512445066  1.0000000000000000  0.4525038192157513

  0.00000000E+00  0.00000000E+00  0.00000000E+00
  0.00000000E+00  0.00000000E+00  0.00000000E+00
  0.00000000E+00  0.00000000E+00  0.00000000E+00
  0.00000000E+00  0.00000000E+00  0.00000000E+00
