generated by phonopy
   1.0
    31.9501016231999984    0.0000000000000000    0.0000000000000000
     0.0000000000000000   21.3000011445000013    0.0000000000000000
     0.0000000000000000    0.0000000000000000   17.0000000000000000
Bi Sb
  40   40
Direct
  0.0406628401392978  0.9997395779504245  0.5474961807842487
  0.2909232621888733  0.0000000000000000  0.5474961807842487
  0.5409232621888733  0.0000000000000000  0.5474961807842487
  0.7909232621888734  0.0000000000000000  0.5474961807842487
  0.0409232621888733  0.2000000000000000  0.5474961807842487
  0.2909232621888733  0.2000000000000000  0.5474961807842487
  0.5409232621888733  0.2000000000000000  0.5474961807842487
  0.7909232621888734  0.2000000000000000  0.5474961807842487
  0.0409232621888733  0.4000000000000000  0.5474961807842487
  0.2909232621888733  0.4000000000000000  0.5474961807842487
  0.5409232621888733  0.4000000000000000  0.5474961807842487
  0.7909232621888734  0.4000000000000000  0.5474961807842487
  0.0409232621888733  0.6000000000000001  0.5474961807842487
  0.2909232621888733  0.6000000000000001  0.5474961807842487
  0.5409232621888733  0.6000000000000001  0.5474961807842487
  0.7909232621888734  0.6000000000000001  0.5474961807842487
  0.0409232621888733  0.7999999999999999  0.5474961807842487
  0.2909232621888733  0.7999999999999999  0.5474961807842487
  0.5409232621888733  0.7999999999999999  0.5474961807842487
  0.7909232621888734  0.7999999999999999  0.5474961807842487
  0.1659232621888733  0.1000000000000000  0.5474961807842487
  0.4159232621888734  0.1000000000000000  0.5474961807842487
  0.6659232621888733  0.1000000000000000  0.5474961807842487
  0.9159232621888734  0.1000000000000000  0.5474961807842487
  0.1659232621888733  0.3000000000000000  0.5474961807842487
  0.4159232621888734  0.3000000000000000  0.5474961807842487
  0.6659232621888733  0.3000000000000000  0.5474961807842487
  0.9159232621888734  0.3000000000000000  0.5474961807842487
  0.1659232621888733  0.5000000000000000  0.5474961807842487
  0.4159232621888734  0.5000000000000000  0.5474961807842487
  0.6659232621888733  0.5000000000000000  0.5474961807842487
  0.9159232621888734  0.5000000000000000  0.5474961807842487
  0.1659232621888733  0.7000000000000001  0.5474961807842487
  0.4159232621888734  0.7000000000000001  0.5474961807842487
  0.6659232621888733  0.7000000000000001  0.5474961807842487
  0.9159232621888734  0.7000000000000001  0.5474961807842487
  0.1659232621888733  0.9000000000000001  0.5474961807842487
  0.4159232621888734  0.9000000000000001  0.5474961807842487
  0.6659232621888733  0.9000000000000001  0.5474961807842487
  0.9159232621888734  0.9000000000000001  0.5474961807842487
  0.0840767378111267  0.1000000000000000  0.4525038192157513
  0.3340767378111267  0.1000000000000000  0.4525038192157513
  0.5840767378111267  0.1000000000000000  0.4525038192157513
  0.8340767378111268  0.1000000000000000  0.4525038192157513
  0.0840767378111267  0.3000000000000000  0.4525038192157513
  0.3340767378111267  0.3000000000000000  0.4525038192157513
  0.5840767378111267  0.3000000000000000  0.4525038192157513
  0.8340767378111268  0.3000000000000000  0.4525038192157513
  0.0840767378111267  0.5000000000000000  0.4525038192157513
  0.3340767378111267  0.5000000000000000  0.4525038192157513
  0.5840767378111267  0.5000000000000000  0.4525038192157513
  0.8340767378111268  0.5000000000000000  0.4525038192157513
  0.0840767378111267  0.7000000000000001  0.4525038192157513
  0.3340767378111267  0.7000000000000001  0.4525038192157513
  0.5840767378111267  0.7000000000000001  0.4525038192157513
  0.8340767378111268  0.7000000000000001  0.4525038192157513
  0.0840767378111267  0.9000000000000001  0.4525038192157513
  0.3340767378111267  0.9000000000000001  0.4525038192157513
  0.5840767378111267  0.9000000000000001  0.4525038192157513
  0.8340767378111268  0.9000000000000001  0.4525038192157513
  0.2090767378111267  0.2000000000000000  0.4525038192157513
  0.4590767378111267  0.2000000000000000  0.4525038192157513
  0.7090767378111267  0.2000000000000000  0.4525038192157513
  0.9590767378111268  0.2000000000000000  0.4525038192157513
  0.2090767378111267  0.4000000000000000  0.4525038192157513
  0.4590767378111267  0.4000000000000000  0.4525038192157513
  0.7090767378111267  0.4000000000000000  0.4525038192157513
  0.9590767378111268  0.4000000000000000  0.4525038192157513
  0.2090767378111267  0.6000000000000001  0.4525038192157513
  0.4590767378111267  0.6000000000000001  0.4525038192157513
  0.7090767378111267  0.6000000000000001  0.4525038192157513
  0.9590767378111268  0.6000000000000001  0.4525038192157513
  0.2090767378111267  0.7999999999999999  0.4525038192157513
  0.4590767378111267  0.7999999999999999  0.4525038192157513
  0.7090767378111267  0.7999999999999999  0.4525038192157513
  0.9590767378111268  0.7999999999999999  0.4525038192157513
  0.2090767378111267  0.0000000000000000  0.4525038192157513
  0.4590767378111267  0.0000000000000000  0.4525038192157513
  0.7090767378111267  0.0000000000000000  0.4525038192157513
  0.9590767378111268  0.0000000000000000  0.4525038192157513
