generated by phonopy
   1.0
    30.0540732918186215    0.0000000341012280   -0.0005779613806960
     0.0000000914021710   28.1111641021049579   -0.0000001984566010
    -0.0003594200398300   -0.0000001191623370   17.0942015038116715
Bi As
  56   56
Direct
  0.0410893458731623  0.1428571426887280  0.5437149590906539
  0.2910893458731623  0.1428571426887279  0.5437149590906540
  0.5410893458731623  0.1428571426887280  0.5437149590906539
  0.7910893458731622  0.1428571426887280  0.5437149590906540
  0.0410893458731623  0.2857142855458707  0.5437149590906539
  0.2910893458731622  0.2857142855458707  0.5437149590906540
  0.5410893458731623  0.2857142855458707  0.5437149590906539
  0.7910893458731624  0.2857142855458707  0.5437149590906540
  0.0410893458731623  0.4285714284030136  0.5437149590906539
  0.2910893458731623  0.4285714284030136  0.5437149590906540
  0.5410893458731622  0.4285714284030136  0.5437149590906539
  0.7910893458731623  0.4285714284030135  0.5437149590906540
  0.0410893458731623  0.5714285712601564  0.5437149590906539
  0.2910893458731623  0.5714285712601566  0.5437149590906540
  0.5410893458731622  0.5714285712601564  0.5437149590906539
  0.7910893458731622  0.5714285712601564  0.5437149590906540
  0.0410893458731623  0.7142857141172992  0.5437149590906539
  0.2910893458731623  0.7142857141172992  0.5437149590906540
  0.5410893458731622  0.7142857141172992  0.5437149590906539
  0.7910893458731623  0.7142857141172994  0.5437149590906540
  0.0410893458731623  0.8571428569744421  0.5437149590906539
  0.2910893458731623  0.8571428569744421  0.5437149590906540
  0.5410893458731623  0.8571428569744421  0.5437149590906539
  0.7910893458731623  0.8571428569744421  0.5437149590906539
  0.0410893458731623  0.9999999998315849  0.5437149590906539
  0.2910893458731623  0.9999999998315848  0.5437149590906540
  0.5410893458731623  0.9999999998315849  0.5437149590906539
  0.7910893458731623  0.9999999998315848  0.5437149590906539
  0.1660893458731622  0.0714285712601565  0.5437149590906540
  0.4160893458731622  0.0714285712601566  0.5437149590906539
  0.6660893458731620  0.0714285712601566  0.5437149590906539
  0.9160893458731622  0.0714285712601565  0.5437149590906540
  0.1660893458731622  0.2142857141172994  0.5437149590906540
  0.4160893458731622  0.2142857141172994  0.5437149590906540
  0.6660893458731622  0.2142857141172994  0.5437149590906539
  0.9160893458731620  0.2142857141172994  0.5437149590906540
  0.1660893458731622  0.3571428569744422  0.5437149590906539
  0.4160893458731622  0.3571428569744422  0.5437149590906540
  0.6660893458731622  0.3571428569744422  0.5437149590906539
  0.9160893458731622  0.3571428569744422  0.5437149590906540
  0.1660893458731622  0.4999999998315851  0.5437149590906539
  0.4160893458731622  0.4999999998315851  0.5437149590906540
  0.6660893458731622  0.4999999998315850  0.5437149590906539
  0.9160893458731623  0.4999999998315851  0.5437149590906540
  0.1660893458731622  0.6428571426887278  0.5437149590906539
  0.4160893458731622  0.6428571426887278  0.5437149590906540
  0.6660893458731622  0.6428571426887277  0.5437149590906539
  0.9160893458731622  0.6428571426887278  0.5437149590906540
  0.1660893458731622  0.7857142855458706  0.5437149590906539
  0.4160893458731622  0.7857142855458705  0.5437149590906540
  0.6660893458731623  0.7857142855458706  0.5437149590906539
  0.9160893458731624  0.7857142855458707  0.5437149590906540
  0.1660893458731622  0.9285714284030135  0.5437149590906539
  0.4160893458731622  0.9285714284030135  0.5437149590906540
  0.6660893458731622  0.9285714284030134  0.5437149590906539
  0.9160893458731622  0.9285714284030135  0.5437149590906540
  0.0839106541268377  0.0714285715969863  0.4568700345983208
  0.3339106541268377  0.0714285715969863  0.4562850409093461
  0.5839106541268377  0.0714285715969863  0.4562850409093461
  0.8339106541268375  0.0714285715969863  0.4562850409093461
  0.0839106541268377  0.2142857144541291  0.4562850409093461
  0.3339106541268378  0.2142857144541291  0.4562850409093461
  0.5839106541268376  0.2142857144541291  0.4562850409093461
  0.8339106541268376  0.2142857144541291  0.4562850409093461
  0.0839106541268377  0.3571428573112720  0.4562850409093461
  0.3339106541268377  0.3571428573112719  0.4562850409093461
  0.5839106541268378  0.3571428573112719  0.4562850409093461
  0.8339106541268377  0.3571428573112720  0.4562850409093461
  0.0839106541268377  0.5000000001684148  0.4562850409093461
  0.3339106541268378  0.5000000001684148  0.4562850409093461
  0.5839106541268377  0.5000000001684147  0.4562850409093461
  0.8339106541268376  0.5000000001684148  0.4562850409093461
  0.0839106541268377  0.6428571430255576  0.4562850409093461
  0.3339106541268377  0.6428571430255577  0.4562850409093461
  0.5839106541268377  0.6428571430255576  0.4562850409093461
  0.8339106541268377  0.6428571430255576  0.4562850409093461
  0.0839106541268377  0.7857142858827004  0.4562850409093461
  0.3339106541268377  0.7857142858827004  0.4562850409093461
  0.5839106541268380  0.7857142858827005  0.4562850409093461
  0.8339106541268377  0.7857142858827004  0.4562850409093461
  0.0839106541268377  0.9285714287398433  0.4562850409093461
  0.3339106541268378  0.9285714287398433  0.4562850409093461
  0.5839106541268377  0.9285714287398433  0.4562850409093461
  0.8339106541268377  0.9285714287398433  0.4562850409093461
  0.2089106541268378  0.0000000001684149  0.4562850409093461
  0.4589106541268377  0.0000000001684149  0.4562850409093461
  0.7089106541268376  0.0000000001684149  0.4562850409093461
  0.9589106541268377  0.0000000001684149  0.4562850409093461
  0.2089106541268378  0.1428571430255577  0.4562850409093461
  0.4589106541268378  0.1428571430255577  0.4562850409093461
  0.7089106541268377  0.1428571430255577  0.4562850409093461
  0.9589106541268376  0.1428571430255577  0.4562850409093461
  0.2089106541268378  0.2857142858827006  0.4562850409093461
  0.4589106541268377  0.2857142858827006  0.4562850409093461
  0.7089106541268377  0.2857142858827005  0.4562850409093461
  0.9589106541268378  0.2857142858827005  0.4562850409093461
  0.2089106541268378  0.4285714287398434  0.4562850409093461
  0.4589106541268378  0.4285714287398434  0.4562850409093461
  0.7089106541268377  0.4285714287398434  0.4562850409093461
  0.9589106541268377  0.4285714287398434  0.4562850409093461
  0.2089106541268378  0.5714285715969862  0.4562850409093461
  0.4589106541268378  0.5714285715969861  0.4562850409093461
  0.7089106541268377  0.5714285715969862  0.4562850409093461
  0.9589106541268376  0.5714285715969862  0.4562850409093461
  0.2089106541268378  0.7142857144541290  0.4562850409093461
  0.4589106541268377  0.7142857144541290  0.4562850409093461
  0.7089106541268376  0.7142857144541289  0.4562850409093461
  0.9589106541268377  0.7142857144541291  0.4562850409093461
  0.2089106541268378  0.8571428573112719  0.4562850409093461
  0.4589106541268377  0.8571428573112718  0.4562850409093461
  0.7089106541268378  0.8571428573112718  0.4562850409093461
  0.9589106541268377  0.8571428573112718  0.4562850409093461
