Buckled BiAs strained 8%
   1.00000000000000
     7.5135183229546554    0.0000000085253070   -0.0001444903451740
     0.0000000130574530    4.0158805860149940   -0.0000000283509430
    -0.0003594200398300   -0.0000001191623370   17.0942015038116715
   Bi   As
     2     2
Direct
  0.1643573834926490  0.9999999988210959  0.5437149590906539
  0.6643573834926488  0.4999999988210959  0.5437149590906539
  0.3356426165073510  0.5000000011789041  0.4562850409093461
  0.8356426165073512  0.0000000011789041  0.4562850409093461

  0.00000000E+00  0.00000000E+00  0.00000000E+00
  0.00000000E+00  0.00000000E+00  0.00000000E+00
  0.00000000E+00  0.00000000E+00  0.00000000E+00
  0.00000000E+00  0.00000000E+00  0.00000000E+00
