Buckled BiAs strained 18%
   1.00000000000000
     6.9569614101431991    0.0000000100598620   -0.0001444903451740
     0.0000000120902340    4.7387390914976928   -0.0000000283509430
    -0.0003327963331760   -0.0000001406115580   17.0942015038116715
   Bi   As
     2     2
Direct
  0.1731444417851024  0.9999999988210959  0.5406480248115052
  0.6731444417851025  0.4999999988210959  0.5406480248115052
  0.3268555582148975  0.5000000011789041  0.4593519751884944
  0.8268555582148975  0.0000000011789041  0.4593519751884944

  0.00000000E+00  0.00000000E+00  0.00000000E+00
  0.00000000E+00  0.00000000E+00  0.00000000E+00
  0.00000000E+00  0.00000000E+00  0.00000000E+00
  0.00000000E+00  0.00000000E+00  0.00000000E+00
