generated by phonopy
   1.0
    20.8708842304295956    0.0000000301795860   -0.0004334710355220
     0.0000000604511700   23.6936954574884631   -0.0000001417547150
    -0.0003327963331760   -0.0000001406115580   17.0942015038116715
Bi As
  30   30
Direct
  0.0577148139283675  0.1999999997642192  0.5400630311225123
  0.3910481472617008  0.1999999997642192  0.5406480248115052
  0.7243814805950342  0.1999999997642192  0.5406480248115053
  0.0577148139283675  0.3999999997642192  0.5406480248115052
  0.3910481472617008  0.3999999997642192  0.5406480248115052
  0.7243814805950342  0.3999999997642191  0.5406480248115053
  0.0577148139283675  0.5999999997642191  0.5406480248115053
  0.3910481472617008  0.5999999997642192  0.5406480248115052
  0.7243814805950343  0.5999999997642192  0.5406480248115053
  0.0577148139283675  0.7999999997642191  0.5406480248115053
  0.3910481472617008  0.7999999997642191  0.5406480248115052
  0.7243814805950342  0.7999999997642192  0.5406480248115053
  0.0577148139283675  0.9999999997642192  0.5406480248115053
  0.3910481472617008  0.9999999997642192  0.5406480248115052
  0.7243814805950340  0.9999999997642193  0.5406480248115053
  0.2243814805950342  0.0999999997642192  0.5406480248115052
  0.5577148139283674  0.0999999997642192  0.5406480248115053
  0.8910481472617007  0.0999999997642192  0.5406480248115052
  0.2243814805950342  0.2999999997642192  0.5406480248115052
  0.5577148139283674  0.2999999997642192  0.5406480248115053
  0.8910481472617007  0.2999999997642192  0.5406480248115052
  0.2243814805950341  0.4999999997642192  0.5406480248115052
  0.5577148139283675  0.4999999997642192  0.5406480248115053
  0.8910481472617008  0.4999999997642192  0.5406480248115052
  0.2243814805950342  0.6999999997642191  0.5406480248115052
  0.5577148139283675  0.6999999997642193  0.5406480248115053
  0.8910481472617007  0.6999999997642192  0.5406480248115052
  0.2243814805950342  0.8999999997642191  0.5406480248115052
  0.5577148139283674  0.8999999997642191  0.5406480248115053
  0.8910481472617006  0.8999999997642192  0.5406480248115052
  0.1089518527382992  0.1000000002357808  0.4593519751884945
  0.4422851860716324  0.1000000002357808  0.4593519751884945
  0.7756185194049658  0.1000000002357808  0.4593519751884945
  0.1089518527382992  0.3000000002357808  0.4593519751884945
  0.4422851860716325  0.3000000002357808  0.4593519751884945
  0.7756185194049661  0.3000000002357808  0.4593519751884945
  0.1089518527382992  0.5000000002357808  0.4593519751884945
  0.4422851860716324  0.5000000002357808  0.4593519751884945
  0.7756185194049660  0.5000000002357808  0.4593519751884945
  0.1089518527382992  0.7000000002357810  0.4593519751884945
  0.4422851860716324  0.7000000002357809  0.4593519751884945
  0.7756185194049658  0.7000000002357808  0.4593519751884944
  0.1089518527382992  0.9000000002357809  0.4593519751884944
  0.4422851860716324  0.9000000002357809  0.4593519751884944
  0.7756185194049660  0.9000000002357808  0.4593519751884944
  0.2756185194049658  0.0000000002357808  0.4593519751884945
  0.6089518527382990  0.0000000002357808  0.4593519751884945
  0.9422851860716326  0.0000000002357808  0.4593519751884945
  0.2756185194049658  0.2000000002357808  0.4593519751884945
  0.6089518527382991  0.2000000002357808  0.4593519751884945
  0.9422851860716326  0.2000000002357808  0.4593519751884945
  0.2756185194049659  0.4000000002357809  0.4593519751884945
  0.6089518527382991  0.4000000002357809  0.4593519751884945
  0.9422851860716327  0.4000000002357809  0.4593519751884945
  0.2756185194049659  0.6000000002357808  0.4593519751884945
  0.6089518527382991  0.6000000002357808  0.4593519751884945
  0.9422851860716326  0.6000000002357808  0.4593519751884945
  0.2756185194049658  0.8000000002357809  0.4593519751884945
  0.6089518527382992  0.8000000002357809  0.4593519751884945
  0.9422851860716325  0.8000000002357809  0.4593519751884945
