Buckled BiAs strained 16%
   1.00000000000000
     4.6717308782530447    0.0000000000000000    0.0000000000000000
    -2.3358654391265219    4.0458376201724340    0.0000000000000000
     0.0000000000000000    0.0000000000000000   29.8404732724901258
   Bi   As
     1     1
Direct
  0.6666666659999976  0.3333333329999988  0.5205475546390650
  0.3333333329999988  0.6666666659999976  0.4794524453609350

  0.00000000E+00  0.00000000E+00  0.00000000E+00
  0.00000000E+00  0.00000000E+00  0.00000000E+00
