generated by phonopy
   1.0
    28.0303852695182698    0.0000000000000000    0.0000000000000000
   -14.0151926347591314   24.2750257210346021    0.0000000000000000
     0.0000000000000000    0.0000000000000000   29.8404732724901258
Bi As
  36   36
Direct
  0.1111111109999996  0.0555555554999998  0.5205475546390649
  0.2777777776666662  0.0555555554999998  0.5205475546390649
  0.4444444443333329  0.0555555554999998  0.5205475546390649
  0.6111111109999996  0.0555555554999998  0.5205475546390649
  0.7777777776666663  0.0555555554999998  0.5205475546390649
  0.9444444443333330  0.0555555554999998  0.5205475546390649
  0.1111111109999996  0.2222222221666665  0.5205475546390649
  0.2777777776666662  0.2222222221666665  0.5205475546390649
  0.4444444443333329  0.2222222221666665  0.5205475546390649
  0.6111111109999995  0.2222222221666665  0.5205475546390649
  0.7777777776666663  0.2222222221666665  0.5205475546390649
  0.9444444443333330  0.2222222221666665  0.5205475546390649
  0.1111111109999996  0.3888888888333332  0.5205475546390649
  0.2777777776666663  0.3888888888333332  0.5205475546390649
  0.4444444443333330  0.3888888888333332  0.5205475546390649
  0.6111111109999996  0.3888888888333332  0.5205475546390649
  0.7777777776666663  0.3888888888333332  0.5205475546390649
  0.9444444443333330  0.3888888888333332  0.5205475546390649
  0.1111111109999996  0.5555555554999998  0.5205475546390649
  0.2777777776666662  0.5555555554999998  0.5205475546390649
  0.4444444443333330  0.5555555554999998  0.5205475546390649
  0.6111111109999996  0.5555555554999998  0.5205475546390649
  0.7777777776666663  0.5555555554999998  0.5205475546390649
  0.9444444443333331  0.5555555554999998  0.5205475546390649
  0.1111111109999996  0.7222222221666665  0.5205475546390649
  0.2777777776666663  0.7222222221666665  0.5205475546390649
  0.4444444443333330  0.7222222221666665  0.5205475546390649
  0.6111111109999996  0.7222222221666665  0.5205475546390649
  0.7777777776666663  0.7222222221666665  0.5205475546390649
  0.9444444443333330  0.7222222221666665  0.5205475546390649
  0.1111111109999997  0.8888888888333331  0.5205475546390649
  0.2777777776666663  0.8888888888333331  0.5205475546390649
  0.4444444443333330  0.8888888888333331  0.5205475546390649
  0.6111111109999996  0.8888888888333331  0.5205475546390649
  0.7777777776666663  0.8888888888333331  0.5205475546390649
  0.9444444443333330  0.8888888888333331  0.5205475546390649
  0.0557998100921523  0.1111111109999996  0.4796966999530874
  0.2222222221666665  0.1111111109999996  0.4794524453609350
  0.3888888888333332  0.1111111109999996  0.4794524453609350
  0.5555555554999998  0.1111111109999996  0.4794524453609350
  0.7222222221666664  0.1111111109999996  0.4794524453609350
  0.8888888888333331  0.1111111109999996  0.4794524453609350
  0.0555555554999998  0.2777777776666662  0.4794524453609350
  0.2222222221666665  0.2777777776666662  0.4794524453609350
  0.3888888888333332  0.2777777776666662  0.4794524453609350
  0.5555555554999998  0.2777777776666662  0.4794524453609350
  0.7222222221666665  0.2777777776666662  0.4794524453609350
  0.8888888888333332  0.2777777776666662  0.4794524453609350
  0.0555555554999998  0.4444444443333329  0.4794524453609350
  0.2222222221666665  0.4444444443333329  0.4794524453609350
  0.3888888888333332  0.4444444443333329  0.4794524453609350
  0.5555555554999998  0.4444444443333329  0.4794524453609350
  0.7222222221666665  0.4444444443333329  0.4794524453609350
  0.8888888888333331  0.4444444443333329  0.4794524453609350
  0.0555555554999998  0.6111111109999996  0.4794524453609350
  0.2222222221666665  0.6111111109999996  0.4794524453609350
  0.3888888888333332  0.6111111109999996  0.4794524453609350
  0.5555555554999998  0.6111111109999996  0.4794524453609350
  0.7222222221666665  0.6111111109999996  0.4794524453609350
  0.8888888888333332  0.6111111109999996  0.4794524453609350
  0.0555555554999999  0.7777777776666663  0.4794524453609350
  0.2222222221666665  0.7777777776666663  0.4794524453609350
  0.3888888888333332  0.7777777776666663  0.4794524453609350
  0.5555555554999998  0.7777777776666663  0.4794524453609350
  0.7222222221666665  0.7777777776666663  0.4794524453609350
  0.8888888888333332  0.7777777776666663  0.4794524453609350
  0.0555555554999998  0.9444444443333329  0.4794524453609350
  0.2222222221666665  0.9444444443333329  0.4794524453609350
  0.3888888888333332  0.9444444443333329  0.4794524453609350
  0.5555555554999998  0.9444444443333329  0.4794524453609350
  0.7222222221666665  0.9444444443333329  0.4794524453609350
  0.8888888888333331  0.9444444443333329  0.4794524453609350
