Buckled BiSb Strain 8 percent
   1.00000000000000
     4.6029967445546873    0.0000000000000000    0.0000000000000000
    -2.3014983722773437    3.9863121145774056    0.0000000000000000
     0.0000000000000000    0.0000000000000000   18.1184253028625299
  Bi              Sb
     1     1
Direct
  0.0000000000000000  0.0000000000000000  0.5426593835188448
  0.3333333329999988  0.6666666659999976  0.4573406164811551

  0.00000000E+00  0.00000000E+00  0.00000000E+00
  0.00000000E+00  0.00000000E+00  0.00000000E+00
