generated by phonopy
   1.0
    27.6179804673281240    0.0000000000000000    0.0000000000000000
   -13.8089902336640620   23.9178726874644347    0.0000000000000000
     0.0000000000000000    0.0000000000000000   18.1184253028625299
Bi Sb
  36   36
Direct
  0.0000000000000000  0.0000000000000000  0.5426593835188449
  0.1666666666666667  0.0000000000000000  0.5426593835188449
  0.3333333333333333  0.0000000000000000  0.5426593835188449
  0.5000000000000000  0.0000000000000000  0.5426593835188449
  0.6666666666666666  0.0000000000000000  0.5426593835188449
  0.8333333333333333  0.0000000000000000  0.5426593835188449
  0.0000000000000000  0.1666666666666667  0.5426593835188449
  0.1666666666666667  0.1666666666666667  0.5426593835188449
  0.3333333333333333  0.1666666666666667  0.5426593835188449
  0.5000000000000000  0.1666666666666667  0.5426593835188449
  0.6666666666666667  0.1666666666666667  0.5426593835188449
  0.8333333333333333  0.1666666666666667  0.5426593835188449
  0.0000000000000000  0.3333333333333333  0.5426593835188449
  0.1666666666666667  0.3333333333333333  0.5426593835188449
  0.3333333333333333  0.3333333333333333  0.5426593835188449
  0.5000000000000000  0.3333333333333333  0.5426593835188449
  0.6666666666666666  0.3333333333333333  0.5426593835188449
  0.8333333333333331  0.3333333333333333  0.5426593835188449
  0.0000000000000000  0.5000000000000000  0.5426593835188449
  0.1666666666666667  0.5000000000000000  0.5426593835188449
  0.3333333333333333  0.5000000000000000  0.5426593835188449
  0.5000000000000000  0.5000000000000000  0.5426593835188449
  0.6666666666666666  0.5000000000000000  0.5426593835188449
  0.8333333333333333  0.5000000000000000  0.5426593835188449
  0.0000000000000000  0.6666666666666666  0.5426593835188449
  0.1666666666666667  0.6666666666666666  0.5426593835188449
  0.3333333333333333  0.6666666666666666  0.5426593835188449
  0.5000000000000000  0.6666666666666666  0.5426593835188449
  0.6666666666666666  0.6666666666666666  0.5426593835188449
  0.8333333333333333  0.6666666666666666  0.5426593835188449
  0.0000000000000000  0.8333333333333333  0.5426593835188449
  0.1666666666666666  0.8333333333333333  0.5426593835188449
  0.3333333333333333  0.8333333333333333  0.5426593835188449
  0.5000000000000000  0.8333333333333333  0.5426593835188449
  0.6666666666666666  0.8333333333333333  0.5426593835188449
  0.8333333333333333  0.8333333333333333  0.5426593835188449
  0.0552528072664747  0.1111111109999996  0.4570378682476300
  0.2222222221666665  0.1111111109999996  0.4573406164811551
  0.3888888888333331  0.1111111109999996  0.4573406164811551
  0.5555555554999998  0.1111111109999996  0.4573406164811551
  0.7222222221666664  0.1111111109999996  0.4573406164811551
  0.8888888888333332  0.1111111109999996  0.4573406164811551
  0.0555555554999998  0.2777777776666662  0.4573406164811551
  0.2222222221666665  0.2777777776666662  0.4573406164811551
  0.3888888888333331  0.2777777776666662  0.4573406164811551
  0.5555555554999999  0.2777777776666662  0.4573406164811551
  0.7222222221666665  0.2777777776666662  0.4573406164811551
  0.8888888888333332  0.2777777776666662  0.4573406164811551
  0.0555555554999998  0.4444444443333329  0.4573406164811551
  0.2222222221666665  0.4444444443333329  0.4573406164811551
  0.3888888888333331  0.4444444443333329  0.4573406164811551
  0.5555555554999999  0.4444444443333329  0.4573406164811551
  0.7222222221666664  0.4444444443333329  0.4573406164811551
  0.8888888888333331  0.4444444443333329  0.4573406164811551
  0.0555555554999998  0.6111111109999996  0.4573406164811551
  0.2222222221666665  0.6111111109999996  0.4573406164811551
  0.3888888888333331  0.6111111109999996  0.4573406164811551
  0.5555555554999998  0.6111111109999996  0.4573406164811551
  0.7222222221666664  0.6111111109999996  0.4573406164811551
  0.8888888888333332  0.6111111109999996  0.4573406164811551
  0.0555555554999998  0.7777777776666661  0.4573406164811551
  0.2222222221666664  0.7777777776666661  0.4573406164811551
  0.3888888888333331  0.7777777776666661  0.4573406164811551
  0.5555555554999998  0.7777777776666661  0.4573406164811551
  0.7222222221666664  0.7777777776666661  0.4573406164811551
  0.8888888888333331  0.7777777776666661  0.4573406164811551
  0.0555555554999998  0.9444444443333329  0.4573406164811551
  0.2222222221666664  0.9444444443333329  0.4573406164811551
  0.3888888888333331  0.9444444443333329  0.4573406164811551
  0.5555555554999998  0.9444444443333329  0.4573406164811551
  0.7222222221666664  0.9444444443333329  0.4573406164811551
  0.8888888888333331  0.9444444443333329  0.4573406164811551
