<?xml version="1.0" encoding="ISO-8859-1"?>
<modeling>
 <generator>
  <i name="program" type="string">vasp </i>
  <i name="version" type="string">6.4.3  </i>
  <i name="subversion" type="string">19Mar24 (build Jan 17 2026 20:14:01) complex                          parallel </i>
  <i name="platform" type="string">LinuxIFC </i>
  <i name="date" type="string">2026 03 26 </i>
  <i name="time" type="string">14:57:05 </i>
 </generator>
 <incar>
  <i type="string" name="PREC">Accurate</i>
  <i type="int" name="IALGO">    38</i>
  <i type="logical" name="ADDGRID"> T  </i>
  <i type="int" name="ISPIN">     1</i>
  <i type="int" name="IBRION">     2</i>
  <i name="EDIFF">      0.00000001</i>
  <i type="int" name="NSW">     0</i>
  <i name="ENCUT">    500.00000000</i>
  <i name="POTIM">      0.02000000</i>
  <i type="logical" name="LREAL"> F  </i>
  <i type="int" name="ISMEAR">     0</i>
  <i name="SIGMA">      0.05000000</i>
  <i type="logical" name="LWAVE"> F  </i>
  <i type="logical" name="LCHARG"> F  </i>
 </incar>
 <primitive_cell>
  <structure name="primitive_cell" >
   <crystal>
    <varray name="basis" >
     <v>      21.32465726      -0.00000000       0.00000000 </v>
     <v>     -10.66232863      18.46769492       0.00000000 </v>
     <v>       0.00000000       0.00000000      26.60855257 </v>
    </varray>
    <i name="volume">  10478.90738675 </i>
    <varray name="rec_basis" >
     <v>       0.04689407       0.02707430      -0.00000000 </v>
     <v>       0.00000000       0.05414861      -0.00000000 </v>
     <v>       0.00000000       0.00000000       0.03758190 </v>
    </varray>
   </crystal>
   <varray name="positions" >
    <v>       0.13333333       0.06666667       0.53165059 </v>
    <v>       0.33333333       0.06666667       0.53165059 </v>
    <v>       0.53333333       0.06666667       0.53165059 </v>
    <v>       0.73333333       0.06666667       0.53165059 </v>
    <v>       0.93333333       0.06666667       0.53165059 </v>
    <v>       0.13333333       0.26666667       0.53165059 </v>
    <v>       0.33333333       0.26666667       0.53165059 </v>
    <v>       0.53333333       0.26666667       0.53165059 </v>
    <v>       0.73333333       0.26666667       0.53165059 </v>
    <v>       0.93333333       0.26666667       0.53165059 </v>
    <v>       0.13333333       0.46666667       0.53165059 </v>
    <v>       0.33333333       0.46666667       0.53165059 </v>
    <v>       0.53333333       0.46666667       0.53165059 </v>
    <v>       0.73333333       0.46666667       0.53165059 </v>
    <v>       0.93333333       0.46666667       0.53165059 </v>
    <v>       0.13333333       0.66666667       0.53165059 </v>
    <v>       0.33333333       0.66666667       0.53165059 </v>
    <v>       0.53333333       0.66666667       0.53165059 </v>
    <v>       0.73333333       0.66666667       0.53165059 </v>
    <v>       0.93333333       0.66666667       0.53165059 </v>
    <v>       0.13333333       0.86666667       0.53165059 </v>
    <v>       0.33333333       0.86666667       0.53165059 </v>
    <v>       0.53333333       0.86666667       0.53165059 </v>
    <v>       0.73333333       0.86666667       0.53165059 </v>
    <v>       0.93333333       0.86666667       0.53165059 </v>
    <v>       0.06695993       0.13333333       0.46864267 </v>
    <v>       0.26666667       0.13333333       0.46834941 </v>
    <v>       0.46666667       0.13333333       0.46834941 </v>
    <v>       0.66666667       0.13333333       0.46834941 </v>
    <v>       0.86666667       0.13333333       0.46834941 </v>
    <v>       0.06666667       0.33333333       0.46834941 </v>
    <v>       0.26666667       0.33333333       0.46834941 </v>
    <v>       0.46666667       0.33333333       0.46834941 </v>
    <v>       0.66666667       0.33333333       0.46834941 </v>
    <v>       0.86666667       0.33333333       0.46834941 </v>
    <v>       0.06666667       0.53333333       0.46834941 </v>
    <v>       0.26666667       0.53333333       0.46834941 </v>
    <v>       0.46666667       0.53333333       0.46834941 </v>
    <v>       0.66666667       0.53333333       0.46834941 </v>
    <v>       0.86666667       0.53333333       0.46834941 </v>
    <v>       0.06666667       0.73333333       0.46834941 </v>
    <v>       0.26666667       0.73333333       0.46834941 </v>
    <v>       0.46666667       0.73333333       0.46834941 </v>
    <v>       0.66666667       0.73333333       0.46834941 </v>
    <v>       0.86666667       0.73333333       0.46834941 </v>
    <v>       0.06666667       0.93333333       0.46834941 </v>
    <v>       0.26666667       0.93333333       0.46834941 </v>
    <v>       0.46666667       0.93333333       0.46834941 </v>
    <v>       0.66666667       0.93333333       0.46834941 </v>
    <v>       0.86666667       0.93333333       0.46834941 </v>
   </varray>
  </structure>
  <varray name="primitive_index" >
   <v type="int" >        1 </v>
   <v type="int" >        2 </v>
   <v type="int" >        3 </v>
   <v type="int" >        4 </v>
   <v type="int" >        5 </v>
   <v type="int" >        6 </v>
   <v type="int" >        7 </v>
   <v type="int" >        8 </v>
   <v type="int" >        9 </v>
   <v type="int" >       10 </v>
   <v type="int" >       11 </v>
   <v type="int" >       12 </v>
   <v type="int" >       13 </v>
   <v type="int" >       14 </v>
   <v type="int" >       15 </v>
   <v type="int" >       16 </v>
   <v type="int" >       17 </v>
   <v type="int" >       18 </v>
   <v type="int" >       19 </v>
   <v type="int" >       20 </v>
   <v type="int" >       21 </v>
   <v type="int" >       22 </v>
   <v type="int" >       23 </v>
   <v type="int" >       24 </v>
   <v type="int" >       25 </v>
   <v type="int" >       26 </v>
   <v type="int" >       27 </v>
   <v type="int" >       28 </v>
   <v type="int" >       29 </v>
   <v type="int" >       30 </v>
   <v type="int" >       31 </v>
   <v type="int" >       32 </v>
   <v type="int" >       33 </v>
   <v type="int" >       34 </v>
   <v type="int" >       35 </v>
   <v type="int" >       36 </v>
   <v type="int" >       37 </v>
   <v type="int" >       38 </v>
   <v type="int" >       39 </v>
   <v type="int" >       40 </v>
   <v type="int" >       41 </v>
   <v type="int" >       42 </v>
   <v type="int" >       43 </v>
   <v type="int" >       44 </v>
   <v type="int" >       45 </v>
   <v type="int" >       46 </v>
   <v type="int" >       47 </v>
   <v type="int" >       48 </v>
   <v type="int" >       49 </v>
   <v type="int" >       50 </v>
  </varray>
 </primitive_cell>
 <kpoints>
  <generation param="Gamma">
   <v type="int" name="divisions">       4        4        1 </v>
   <v name="usershift">      0.00000000       0.00000000       0.00000000 </v>
   <v name="genvec1">      0.25000000      -0.00000000       0.00000000 </v>
   <v name="genvec2">     -0.00000000       0.25000000       0.00000000 </v>
   <v name="genvec3">      0.00000000       0.00000000       1.00000000 </v>
   <v name="shift">      0.00000000       0.00000000       0.00000000 </v>
  </generation>
  <varray name="kpointlist" >
   <v>       0.00000000       0.00000000       0.00000000 </v>
   <v>       0.25000000      -0.00000000       0.00000000 </v>
   <v>       0.00000000       0.25000000       0.00000000 </v>
   <v>      -0.25000000       0.25000000       0.00000000 </v>
   <v>       0.50000000      -0.00000000       0.00000000 </v>
   <v>       0.00000000       0.50000000       0.00000000 </v>
   <v>       0.50000000       0.50000000       0.00000000 </v>
   <v>       0.25000000       0.25000000       0.00000000 </v>
   <v>      -0.25000000       0.50000000       0.00000000 </v>
   <v>       0.50000000       0.25000000      -0.00000000 </v>
  </varray>
  <varray name="weights" >
   <v>       0.06250000 </v>
   <v>       0.12500000 </v>
   <v>       0.12500000 </v>
   <v>       0.12500000 </v>
   <v>       0.06250000 </v>
   <v>       0.06250000 </v>
   <v>       0.06250000 </v>
   <v>       0.12500000 </v>
   <v>       0.12500000 </v>
   <v>       0.12500000 </v>
  </varray>
 </kpoints>
 <parameters>
  <separator name="general" >
   <i type="string" name="SYSTEM">unknown system</i>
   <i type="logical" name="LCOMPAT"> F  </i>
  </separator>
  <separator name="electronic" >
   <i type="string" name="PREC">accura</i>
   <i name="ENMAX">    500.00000000</i>
   <i name="ENAUG">    442.89900000</i>
   <i name="EDIFF">      0.00000001</i>
   <i type="int" name="IALGO">    38</i>
   <i type="int" name="IWAVPR">    10</i>
   <i type="int" name="NBANDS">   308</i>
   <i type="int" name="NBANDSLOW">    -1</i>
   <i type="int" name="NBANDSHIGH">    -1</i>
   <i name="NELECT">    500.00000000</i>
   <i type="int" name="TURBO">     0</i>
   <i type="int" name="IRESTART">     0</i>
   <i type="int" name="NREBOOT">     0</i>
   <i type="int" name="NMIN">     0</i>
   <i name="EREF">      0.00000000</i>
   <separator name="electronic smearing" >
    <i type="int" name="ISMEAR">     0</i>
    <i name="SIGMA">      0.05000000</i>
    <i name="KSPACING">      0.50000000</i>
    <i type="logical" name="KGAMMA"> T  </i>
    <i type="logical" name="KBLOWUP"> T  </i>
   </separator>
   <separator name="electronic projectors" >
    <i type="logical" name="LREAL"> F  </i>
    <v name="ROPT">      0.00000000      0.00000000</v>
    <i type="int" name="LMAXPAW">  -100</i>
    <i type="int" name="LMAXMIX">     2</i>
    <i type="logical" name="NLSPLINE"> F  </i>
   </separator>
   <separator name="electronic startup" >
    <i type="int" name="ISTART">     0</i>
    <i type="int" name="ICHARG">     2</i>
    <i type="int" name="INIWAV">     1</i>
   </separator>
   <separator name="electronic spin" >
    <i type="int" name="ISPIN">     1</i>
    <i type="logical" name="LNONCOLLINEAR"> F  </i>
    <v name="MAGMOM">      1.00000000      1.00000000      1.00000000      1.00000000      1.00000000      1.00000000      1.00000000      1.00000000      1.00000000      1.00000000      1.00000000      1.00000000      1.00000000      1.00000000      1.00000000      1.00000000      1.00000000      1.00000000      1.00000000      1.00000000
      1.00000000      1.00000000      1.00000000      1.00000000      1.00000000      1.00000000      1.00000000      1.00000000      1.00000000      1.00000000      1.00000000      1.00000000      1.00000000      1.00000000      1.00000000      1.00000000      1.00000000      1.00000000      1.00000000      1.00000000
      1.00000000      1.00000000      1.00000000      1.00000000      1.00000000      1.00000000      1.00000000      1.00000000      1.00000000      1.00000000</v>
    <i name="NUPDOWN">     -1.00000000</i>
    <i type="logical" name="LSORBIT"> F  </i>
    <v name="SAXIS">      0.00000000      0.00000000      1.00000000</v>
    <i type="logical" name="LSPIRAL"> F  </i>
    <v name="QSPIRAL">      0.00000000      0.00000000      0.00000000</v>
    <i type="logical" name="LZEROZ"> F  </i>
   </separator>
   <separator name="electronic exchange-correlation" >
    <i type="logical" name="LASPH"> F  </i>
   </separator>
   <separator name="electronic convergence" >
    <i type="int" name="NELM">    60</i>
    <i type="int" name="NELMDL">    -5</i>
    <i type="int" name="NELMIN">     2</i>
    <i name="ENINI">    500.00000000</i>
    <separator name="electronic convergence detail" >
     <i type="logical" name="LDIAG"> T  </i>
     <i type="logical" name="LSUBROT"> F  </i>
     <i name="WEIMIN">      0.00000000</i>
     <i name="EBREAK">      0.00000000</i>
     <i name="DEPER">      0.30000000</i>
     <i type="int" name="NRMM">     4</i>
     <i name="TIME">      0.40000000</i>
    </separator>
   </separator>
   <separator name="electronic mixer" >
    <i name="AMIX">      0.40000000</i>
    <i name="BMIX">      1.00000000</i>
    <i name="AMIN">      0.10000000</i>
    <i name="AMIX_MAG">      1.60000000</i>
    <i name="BMIX_MAG">      1.00000000</i>
    <separator name="electronic mixer details" >
     <i type="int" name="IMIX">     4</i>
     <i type="logical" name="MIXFIRST"> F  </i>
     <i type="int" name="MAXMIX">   -45</i>
     <i name="WC">    100.00000000</i>
     <i type="int" name="INIMIX">     1</i>
     <i type="int" name="MIXPRE">     1</i>
     <i type="int" name="MREMOVE">     5</i>
    </separator>
   </separator>
   <separator name="electronic dipolcorrection" >
    <i type="logical" name="LDIPOL"> F  </i>
    <i type="logical" name="LMONO"> F  </i>
    <i type="int" name="IDIPOL">     0</i>
    <i name="EPSILON">      1.00000000</i>
    <v name="DIPOL">   -100.00000000   -100.00000000   -100.00000000</v>
    <i name="EFIELD">      0.00000000</i>
    <i type="logical" name="LVACPOTAV"> F  </i>
   </separator>
  </separator>
  <separator name="grids" >
   <i type="int" name="NGX">   160</i>
   <i type="int" name="NGY">   160</i>
   <i type="int" name="NGZ">   196</i>
   <i type="int" name="NGXF">   320</i>
   <i type="int" name="NGYF">   320</i>
   <i type="int" name="NGZF">   392</i>
   <i type="logical" name="ADDGRID"> T  </i>
  </separator>
  <separator name="ionic" >
   <i type="int" name="NSW">     0</i>
   <i type="int" name="IBRION">    -1</i>
   <i type="int" name="MDALGO">     0</i>
   <i type="int" name="ISIF">     2</i>
   <i name="PSTRESS">      0.00000000</i>
   <i name="EDIFFG">      0.00000010</i>
   <i type="int" name="NFREE">     1</i>
   <i name="POTIM">      0.02000000</i>
   <i name="SMASS">     -3.00000000</i>
   <i name="SCALEE">      1.00000000</i>
  </separator>
  <separator name="ionic md" >
   <i name="TEBEG">      0.00010000</i>
   <i name="TEEND">      0.00010000</i>
   <i type="int" name="NBLOCK">     1</i>
   <i type="int" name="KBLOCK">     1</i>
   <i type="int" name="NPACO">   256</i>
   <i name="APACO">     10.00000000</i>
  </separator>
  <separator name="symmetry" >
   <i type="int" name="ISYM">     2</i>
   <i name="SYMPREC">      0.00001000</i>
  </separator>
  <separator name="dos" >
   <i type="int" name="LORBIT">     0</i>
   <v name="RWIGS">     -1.00000000     -1.00000000</v>
   <i type="int" name="NEDOS">   301</i>
   <i name="EMIN">     10.00000000</i>
   <i name="EMAX">    -10.00000000</i>
   <i name="EFERMI">      0.00000000</i>
  </separator>
  <separator name="writing" >
   <i type="int" name="NWRITE">     2</i>
   <i type="logical" name="LWAVE"> F  </i>
   <i type="logical" name="LDOWNSAMPLE"> F  </i>
   <i type="logical" name="LCHARG"> F  </i>
   <i type="logical" name="LPARD"> F  </i>
   <i type="logical" name="LVTOT"> F  </i>
   <i type="logical" name="LVHAR"> F  </i>
   <i type="logical" name="LELF"> F  </i>
   <i type="logical" name="LOPTICS"> F  </i>
   <v name="STM">      0.00000000      0.00000000      0.00000000      0.00000000      0.00000000      0.00000000      0.00000000</v>
  </separator>
  <separator name="performance" >
   <i type="int" name="NPAR">    11</i>
   <i type="int" name="NSIM">     4</i>
   <i type="int" name="NBLK">    -1</i>
   <i type="logical" name="LPLANE"> T  </i>
   <i type="logical" name="LSCALAPACK"> T  </i>
   <i type="logical" name="LSCAAWARE"> F  </i>
   <i type="logical" name="LSCALU"> F  </i>
   <i type="logical" name="LASYNC"> F  </i>
   <i type="logical" name="LORBITALREAL"> F  </i>
  </separator>
  <separator name="miscellaneous" >
   <i type="int" name="IDIOT">     3</i>
   <i type="int" name="PHON_NSTRUCT">    -1</i>
   <i type="logical" name="LMUSIC"> F  </i>
   <v name="POMASS">    208.98000000    121.75000000</v>
   <v name="DARWINR">      0.00000000      0.00000000</v>
   <v name="DARWINV">      1.00000000      1.00000000</v>
   <i type="logical" name="LCORR"> T  </i>
  </separator>
  <i type="logical" name="GGA_COMPAT"> T  </i>
  <i type="logical" name="LBERRY"> F  </i>
  <i type="int" name="ICORELEVEL">     0</i>
  <i type="logical" name="LDAU"> F  </i>
  <i type="int" name="I_CONSTRAINED_M">     0</i>
  <separator name="electronic exchange-correlation" >
   <i type="string" name="GGA    ">PE</i>
   <i type="string" name="XC_C">1</i>
   <i type="int" name="VOSKOWN">     0</i>
   <i type="logical" name="LHFCALC"> F  </i>
   <i type="string" name="PRECFOCK"></i>
   <i type="logical" name="LSYMGRAD"> F  </i>
   <i type="logical" name="LHFONE"> F  </i>
   <i type="logical" name="LRHFCALC"> F  </i>
   <i type="logical" name="LTHOMAS"> F  </i>
   <i type="logical" name="LMODELHF"> F  </i>
   <i type="logical" name="LFOCKACE"> F  </i>
   <i name="ENCUT4O">     -1.00000000</i>
   <i type="int" name="EXXOEP">     0</i>
   <i type="int" name="FOURORBIT">     0</i>
   <i name="AEXX">      0.00000000</i>
   <i name="HFALPHA">      0.00000000</i>
   <i name="MCALPHA">      0.00000000</i>
   <i name="ALDAX">      1.00000000</i>
   <i name="AGGAX">      1.00000000</i>
   <i name="AMGGAX">      1.00000000</i>
   <i name="ALDAC">      1.00000000</i>
   <i name="AGGAC">      1.00000000</i>
   <i name="AMGGAC">      1.00000000</i>
   <i type="int" name="NKREDX">     1</i>
   <i type="int" name="NKREDY">     1</i>
   <i type="int" name="NKREDZ">     1</i>
   <i type="logical" name="SHIFTRED"> F  </i>
   <i type="logical" name="ODDONLY"> F  </i>
   <i type="logical" name="EVENONLY"> F  </i>
   <i type="int" name="LMAXFOCK">     0</i>
   <i type="int" name="NMAXFOCKAE">     0</i>
   <i type="logical" name="LFOCKAEDFT"> F  </i>
   <i name="HFSCREEN">      0.00000000</i>
   <i name="HFSCREENC">      0.00000000</i>
   <i type="int" name="NBANDSGWLOW">     0</i>
  </separator>
  <separator name="vdW DFT" >
   <i type="logical" name="LUSE_VDW"> F  </i>
   <i type="int" name="IVDW_NL">    -1</i>
   <i type="logical" name="LSPIN_VDW"> F  </i>
   <i name="ZAB_VDW">     -0.84910000</i>
   <i name="GAMMA_VDW">      1.39626340</i>
   <i name="ALPHA_VDW">      0.00000000</i>
   <i name="PARAM1">      0.12340000</i>
   <i name="PARAM2">      1.00000000</i>
   <i name="BPARAM">      6.30000000</i>
   <i name="CPARAM">      0.00930000</i>
  </separator>
  <separator name="model GW" >
   <i type="int" name="MODEL_GW">     0</i>
   <i name="MODEL_EPS0">    125.74688864</i>
   <i name="MODEL_ALPHA">      1.00000000</i>
  </separator>
  <separator name="linear response parameters" >
   <i type="logical" name="LEPSILON"> F  </i>
   <i type="logical" name="LRPA"> F  </i>
   <i type="logical" name="LNABLA"> F  </i>
   <i type="logical" name="LVEL"> F  </i>
   <i name="CSHIFT">      0.10000000</i>
   <i name="OMEGAMAX">     -1.00000000</i>
   <i name="DEG_THRESHOLD">      0.00200000</i>
   <i name="RTIME">     -0.10000000</i>
   <i name="WPLASMAI">      0.00000000</i>
   <v name="DFIELD">      0.00000000      0.00000000      0.00000000</v>
   <v name="WPLASMA">      0.00000000      0.00000000      0.00000000      0.00000000      0.00000000      0.00000000      0.00000000      0.00000000      0.00000000</v>
  </separator>
  <separator name="orbital magnetization" >
   <i type="logical" name="NUCIND"> F  </i>
   <v name="MAGPOS">      0.00000000      0.00000000      0.00000000</v>
   <i type="logical" name="LNICSALL"> T  </i>
   <i type="logical" name="ORBITALMAG"> F  </i>
   <i type="logical" name="LMAGBLOCH"> F  </i>
   <i type="logical" name="LCHIMAG"> F  </i>
   <i type="logical" name="LGAUGE"> T  </i>
   <i type="int" name="MAGATOM">     0</i>
   <v name="MAGDIPOL">      0.00000000      0.00000000      0.00000000</v>
   <v name="AVECCONST">      0.00000000      0.00000000      0.00000000</v>
  </separator>
  <separator name="response functions" >
   <i type="logical" name="LALL_IN_ONE"> F  </i>
   <i type="int" name="IALL_IN_ONE">    -1</i>
   <i type="int" name="NBANDS_WAVE">    -1</i>
   <i type="logical" name="LFINITE_TEMPERATURE"> F  </i>
   <i type="logical" name="LADDER"> F  </i>
   <i type="logical" name="LRPAFORCE"> F  </i>
   <i type="logical" name="LFXC"> F  </i>
   <i type="logical" name="LHARTREE"> T  </i>
   <i type="int" name="IBSE">     0</i>
   <v type="int" name="KPOINT">    -1     0     0     0</v>
   <i type="logical" name="LTCTC"> F  </i>
   <i type="logical" name="LTCTE"> F  </i>
   <i type="logical" name="LTETE"> F  </i>
   <i type="logical" name="LTRIPLET"> F  </i>
   <i type="logical" name="LFXCEPS"> F  </i>
   <i type="logical" name="LFXHEG"> F  </i>
   <i type="int" name="NATURALO">     2</i>
   <i type="logical" name="LHOLEGF"> F  </i>
   <i type="logical" name="L2ORDER"> F  </i>
   <i type="logical" name="LDMP1"> F  </i>
   <i type="logical" name="LMP2LT"> F  </i>
   <i type="logical" name="LSMP2LT"> F  </i>
   <i type="logical" name="LGWLF"> F  </i>
   <i name="ENCUTGW">     -1.60000002</i>
   <i name="ENCUTGWSOFT">     -1.60000002</i>
   <i name="ENCUTLF">     -1.00000000</i>
   <i type="logical" name="ESF_SPLINES"> F  </i>
   <i name="ESF_CONV">      0.01000000</i>
   <i type="int" name="ESF_NINTER">    15</i>
   <i type="int" name="LMAXMP2">    -1</i>
   <i name="SCISSOR">      0.00000000</i>
   <i type="int" name="NOMEGA">     0</i>
   <i type="int" name="NOMEGAR">     0</i>
   <i type="int" name="NBANDSGW">    -1</i>
   <i type="int" name="NBANDSO">    -1</i>
   <i type="int" name="NBANDSV">    -1</i>
   <i type="int" name="NELMGW">     1</i>
   <i type="int" name="NELMHF">     1</i>
   <i type="int" name="DIM">     3</i>
   <i type="int" name="IESPILON">     4</i>
   <i type="int" name="ANTIRES">     0</i>
   <i name="OMEGAMAX">    -30.00000000</i>
   <i name="OMEGAMIN">    -30.00000000</i>
   <i name="OMEGATL">   -200.00000000</i>
   <i type="int" name="OMEGAGRID">     0</i>
   <i name="CSHIFT">     -0.10000000</i>
   <i type="logical" name="LSELFENERGY"> F  </i>
   <i type="logical" name="LSPECTRAL"> F  </i>
   <i type="logical" name="LSPECTRALGW"> F  </i>
   <i type="logical" name="LSINGLES"> F  </i>
   <i type="logical" name="LFERMIGW"> F  </i>
   <i type="logical" name="ODDONLYGW"> F  </i>
   <i type="logical" name="EVENONLYGW"> F  </i>
   <i type="int" name="NKREDLFX">     1</i>
   <i type="int" name="NKREDLFY">     1</i>
   <i type="int" name="NKREDLFZ">     1</i>
   <i type="int" name="MAXMEM">  2800</i>
   <i type="int" name="TELESCOPE">     0</i>
   <i type="int" name="NTAUPAR">    -1</i>
   <i type="int" name="NOMEGAPAR">    -1</i>
   <i name="DAMP_NEWTON">      0.80000001</i>
   <i name="LAMBDA">      1.00000000</i>
  </separator>
  <separator name="External order field" >
   <i name="OFIELD_KAPPA">      0.00000000</i>
   <v name="OFIELD_K">      0.00000000      0.00000000      0.00000000</v>
   <i name="OFIELD_Q6_NEAR">      0.00000000</i>
   <i name="OFIELD_Q6_FAR">      0.00000000</i>
   <i name="OFIELD_A">      0.00000000</i>
  </separator>
  <separator name="optional k-points parameters" >
   <i type="int" name="KPOINTS_OPT_MODE">     1</i>
   <i type="logical" name="LKPOINTS_OPT"> F  </i>
  </separator>
 </parameters>
 <atominfo>
  <atoms>      50 </atoms>
  <types>       2 </types>
  <array name="atoms" >
   <dimension dim="1">ion</dimension>
   <field type="string">element</field>
   <field type="int">atomtype</field>
   <set>
    <rc><c>Bi</c><c>   1</c></rc>
    <rc><c>Bi</c><c>   1</c></rc>
    <rc><c>Bi</c><c>   1</c></rc>
    <rc><c>Bi</c><c>   1</c></rc>
    <rc><c>Bi</c><c>   1</c></rc>
    <rc><c>Bi</c><c>   1</c></rc>
    <rc><c>Bi</c><c>   1</c></rc>
    <rc><c>Bi</c><c>   1</c></rc>
    <rc><c>Bi</c><c>   1</c></rc>
    <rc><c>Bi</c><c>   1</c></rc>
    <rc><c>Bi</c><c>   1</c></rc>
    <rc><c>Bi</c><c>   1</c></rc>
    <rc><c>Bi</c><c>   1</c></rc>
    <rc><c>Bi</c><c>   1</c></rc>
    <rc><c>Bi</c><c>   1</c></rc>
    <rc><c>Bi</c><c>   1</c></rc>
    <rc><c>Bi</c><c>   1</c></rc>
    <rc><c>Bi</c><c>   1</c></rc>
    <rc><c>Bi</c><c>   1</c></rc>
    <rc><c>Bi</c><c>   1</c></rc>
    <rc><c>Bi</c><c>   1</c></rc>
    <rc><c>Bi</c><c>   1</c></rc>
    <rc><c>Bi</c><c>   1</c></rc>
    <rc><c>Bi</c><c>   1</c></rc>
    <rc><c>Bi</c><c>   1</c></rc>
    <rc><c>Sb</c><c>   2</c></rc>
    <rc><c>Sb</c><c>   2</c></rc>
    <rc><c>Sb</c><c>   2</c></rc>
    <rc><c>Sb</c><c>   2</c></rc>
    <rc><c>Sb</c><c>   2</c></rc>
    <rc><c>Sb</c><c>   2</c></rc>
    <rc><c>Sb</c><c>   2</c></rc>
    <rc><c>Sb</c><c>   2</c></rc>
    <rc><c>Sb</c><c>   2</c></rc>
    <rc><c>Sb</c><c>   2</c></rc>
    <rc><c>Sb</c><c>   2</c></rc>
    <rc><c>Sb</c><c>   2</c></rc>
    <rc><c>Sb</c><c>   2</c></rc>
    <rc><c>Sb</c><c>   2</c></rc>
    <rc><c>Sb</c><c>   2</c></rc>
    <rc><c>Sb</c><c>   2</c></rc>
    <rc><c>Sb</c><c>   2</c></rc>
    <rc><c>Sb</c><c>   2</c></rc>
    <rc><c>Sb</c><c>   2</c></rc>
    <rc><c>Sb</c><c>   2</c></rc>
    <rc><c>Sb</c><c>   2</c></rc>
    <rc><c>Sb</c><c>   2</c></rc>
    <rc><c>Sb</c><c>   2</c></rc>
    <rc><c>Sb</c><c>   2</c></rc>
    <rc><c>Sb</c><c>   2</c></rc>
   </set>
  </array>
  <array name="atomtypes" >
   <dimension dim="1">type</dimension>
   <field type="int">atomspertype</field>
   <field type="string">element</field>
   <field>mass</field>
   <field>valence</field>
   <field type="string">pseudopotential</field>
   <set>
    <rc><c>  25</c><c>Bi</c><c>    208.98000000</c><c>     15.00000000</c><c> PAW_PBE Bi_d 06Sep2000                 </c></rc>
    <rc><c>  25</c><c>Sb</c><c>    121.75000000</c><c>      5.00000000</c><c> PAW_PBE Sb 06Sep2000                   </c></rc>
   </set>
  </array>
 </atominfo>
 <structure name="initialpos" >
  <crystal>
   <varray name="basis" >
    <v>      21.32465726      -0.00000000       0.00000000 </v>
    <v>     -10.66232863      18.46769492       0.00000000 </v>
    <v>       0.00000000       0.00000000      26.60855257 </v>
   </varray>
   <i name="volume">  10478.90738675 </i>
   <varray name="rec_basis" >
    <v>       0.04689407       0.02707430      -0.00000000 </v>
    <v>       0.00000000       0.05414861      -0.00000000 </v>
    <v>       0.00000000       0.00000000       0.03758190 </v>
   </varray>
  </crystal>
  <varray name="positions" >
   <v>       0.13333333       0.06666667       0.53165059 </v>
   <v>       0.33333333       0.06666667       0.53165059 </v>
   <v>       0.53333333       0.06666667       0.53165059 </v>
   <v>       0.73333333       0.06666667       0.53165059 </v>
   <v>       0.93333333       0.06666667       0.53165059 </v>
   <v>       0.13333333       0.26666667       0.53165059 </v>
   <v>       0.33333333       0.26666667       0.53165059 </v>
   <v>       0.53333333       0.26666667       0.53165059 </v>
   <v>       0.73333333       0.26666667       0.53165059 </v>
   <v>       0.93333333       0.26666667       0.53165059 </v>
   <v>       0.13333333       0.46666667       0.53165059 </v>
   <v>       0.33333333       0.46666667       0.53165059 </v>
   <v>       0.53333333       0.46666667       0.53165059 </v>
   <v>       0.73333333       0.46666667       0.53165059 </v>
   <v>       0.93333333       0.46666667       0.53165059 </v>
   <v>       0.13333333       0.66666667       0.53165059 </v>
   <v>       0.33333333       0.66666667       0.53165059 </v>
   <v>       0.53333333       0.66666667       0.53165059 </v>
   <v>       0.73333333       0.66666667       0.53165059 </v>
   <v>       0.93333333       0.66666667       0.53165059 </v>
   <v>       0.13333333       0.86666667       0.53165059 </v>
   <v>       0.33333333       0.86666667       0.53165059 </v>
   <v>       0.53333333       0.86666667       0.53165059 </v>
   <v>       0.73333333       0.86666667       0.53165059 </v>
   <v>       0.93333333       0.86666667       0.53165059 </v>
   <v>       0.06695993       0.13333333       0.46864267 </v>
   <v>       0.26666667       0.13333333       0.46834941 </v>
   <v>       0.46666667       0.13333333       0.46834941 </v>
   <v>       0.66666667       0.13333333       0.46834941 </v>
   <v>       0.86666667       0.13333333       0.46834941 </v>
   <v>       0.06666667       0.33333333       0.46834941 </v>
   <v>       0.26666667       0.33333333       0.46834941 </v>
   <v>       0.46666667       0.33333333       0.46834941 </v>
   <v>       0.66666667       0.33333333       0.46834941 </v>
   <v>       0.86666667       0.33333333       0.46834941 </v>
   <v>       0.06666667       0.53333333       0.46834941 </v>
   <v>       0.26666667       0.53333333       0.46834941 </v>
   <v>       0.46666667       0.53333333       0.46834941 </v>
   <v>       0.66666667       0.53333333       0.46834941 </v>
   <v>       0.86666667       0.53333333       0.46834941 </v>
   <v>       0.06666667       0.73333333       0.46834941 </v>
   <v>       0.26666667       0.73333333       0.46834941 </v>
   <v>       0.46666667       0.73333333       0.46834941 </v>
   <v>       0.66666667       0.73333333       0.46834941 </v>
   <v>       0.86666667       0.73333333       0.46834941 </v>
   <v>       0.06666667       0.93333333       0.46834941 </v>
   <v>       0.26666667       0.93333333       0.46834941 </v>
   <v>       0.46666667       0.93333333       0.46834941 </v>
   <v>       0.66666667       0.93333333       0.46834941 </v>
   <v>       0.86666667       0.93333333       0.46834941 </v>
  </varray>
 </structure>
 <calculation>
  <scstep>
   <time name="dav">  128.18  129.45</time>
   <time name="total">  129.17  130.44</time>
   <energy>
    <i name="alphaZ">    121.62916447 </i>
    <i name="ewald">  64948.06596646 </i>
    <i name="hartreedc">-111657.48751863 </i>
    <i name="XCdc">     42.41830507 </i>
    <i name="pawpsdc">  37764.27714653 </i>
    <i name="pawaedc"> -35668.03311435 </i>
    <i name="eentropy">     -0.05671281 </i>
    <i name="bandstr">  -4220.15493527 </i>
    <i name="atom">  52710.29375111 </i>
    <i name="e_fr_energy">   4040.95205259 </i>
    <i name="e_wo_entrp">   4041.00876539 </i>
    <i name="e_0_energy">   4040.98040899 </i>
   </energy>
  </scstep>
  <scstep>
   <time name="dav">  130.05  131.33</time>
   <time name="total">  130.05  131.33</time>
   <energy>
    <i name="e_fr_energy">    211.56570625 </i>
    <i name="e_wo_entrp">    211.56570625 </i>
    <i name="e_0_energy">    211.56570625 </i>
   </energy>
  </scstep>
  <scstep>
   <time name="dav">  118.24  119.41</time>
   <time name="total">  118.24  119.42</time>
   <energy>
    <i name="e_fr_energy">   -183.92165599 </i>
    <i name="e_wo_entrp">   -183.92165599 </i>
    <i name="e_0_energy">   -183.92165599 </i>
   </energy>
  </scstep>
  <scstep>
   <time name="dav">  116.86  118.02</time>
   <time name="total">  116.86  118.02</time>
   <energy>
    <i name="e_fr_energy">   -199.79095846 </i>
    <i name="e_wo_entrp">   -199.79095846 </i>
    <i name="e_0_energy">   -199.79095846 </i>
   </energy>
  </scstep>
  <scstep>
   <time name="dav">  141.15  142.55</time>
   <time name="total">  146.73  148.17</time>
   <energy>
    <i name="e_fr_energy">   -200.67432326 </i>
    <i name="e_wo_entrp">   -200.67432326 </i>
    <i name="e_0_energy">   -200.67432326 </i>
   </energy>
  </scstep>
  <scstep>
   <time name="dav">  117.18  118.34</time>
   <time name="total">  123.72  124.92</time>
   <energy>
    <i name="e_fr_energy">   -199.17468520 </i>
    <i name="e_wo_entrp">   -199.17468520 </i>
    <i name="e_0_energy">   -199.17468520 </i>
   </energy>
  </scstep>
  <scstep>
   <time name="dav">  119.98  121.18</time>
   <time name="total">  126.50  127.74</time>
   <energy>
    <i name="e_fr_energy">   -198.86148638 </i>
    <i name="e_wo_entrp">   -198.86148638 </i>
    <i name="e_0_energy">   -198.86148638 </i>
   </energy>
  </scstep>
  <scstep>
   <time name="dav">  115.89  117.04</time>
   <time name="total">  122.43  123.61</time>
   <energy>
    <i name="e_fr_energy">   -198.73269001 </i>
    <i name="e_wo_entrp">   -198.73269001 </i>
    <i name="e_0_energy">   -198.73269001 </i>
   </energy>
  </scstep>
  <scstep>
   <time name="dav">  119.20  120.39</time>
   <time name="total">  125.75  126.98</time>
   <energy>
    <i name="e_fr_energy">   -198.72345647 </i>
    <i name="e_wo_entrp">   -198.72345647 </i>
    <i name="e_0_energy">   -198.72345647 </i>
   </energy>
  </scstep>
  <scstep>
   <time name="dav">  117.16  118.32</time>
   <time name="total">  123.69  124.89</time>
   <energy>
    <i name="e_fr_energy">   -198.71135504 </i>
    <i name="e_wo_entrp">   -198.71135504 </i>
    <i name="e_0_energy">   -198.71135504 </i>
   </energy>
  </scstep>
  <scstep>
   <time name="dav">  135.52  136.86</time>
   <time name="total">  142.05  143.43</time>
   <energy>
    <i name="e_fr_energy">   -198.71213409 </i>
    <i name="e_wo_entrp">   -198.71213409 </i>
    <i name="e_0_energy">   -198.71213409 </i>
   </energy>
  </scstep>
  <scstep>
   <time name="dav">  113.73  114.86</time>
   <time name="total">  120.26  121.43</time>
   <energy>
    <i name="e_fr_energy">   -198.71250204 </i>
    <i name="e_wo_entrp">   -198.71250204 </i>
    <i name="e_0_energy">   -198.71250204 </i>
   </energy>
  </scstep>
  <scstep>
   <time name="dav">  113.61  114.74</time>
   <time name="total">  120.16  121.33</time>
   <energy>
    <i name="e_fr_energy">   -198.71421141 </i>
    <i name="e_wo_entrp">   -198.71421141 </i>
    <i name="e_0_energy">   -198.71421141 </i>
   </energy>
  </scstep>
  <scstep>
   <time name="dav">  113.50  114.62</time>
   <time name="total">  120.05  121.22</time>
   <energy>
    <i name="e_fr_energy">   -198.71742971 </i>
    <i name="e_wo_entrp">   -198.71742971 </i>
    <i name="e_0_energy">   -198.71742971 </i>
   </energy>
  </scstep>
  <scstep>
   <time name="dav">  114.90  116.05</time>
   <time name="total">  121.43  122.62</time>
   <energy>
    <i name="e_fr_energy">   -198.71894222 </i>
    <i name="e_wo_entrp">   -198.71894222 </i>
    <i name="e_0_energy">   -198.71894222 </i>
   </energy>
  </scstep>
  <scstep>
   <time name="dav">  121.33  122.54</time>
   <time name="total">  127.87  129.12</time>
   <energy>
    <i name="e_fr_energy">   -198.71956782 </i>
    <i name="e_wo_entrp">   -198.71956782 </i>
    <i name="e_0_energy">   -198.71956782 </i>
   </energy>
  </scstep>
  <scstep>
   <time name="dav">  130.26  131.55</time>
   <time name="total">  136.79  138.12</time>
   <energy>
    <i name="e_fr_energy">   -198.72035701 </i>
    <i name="e_wo_entrp">   -198.72035701 </i>
    <i name="e_0_energy">   -198.72035701 </i>
   </energy>
  </scstep>
  <scstep>
   <time name="dav">  119.07  120.25</time>
   <time name="total">  125.60  126.82</time>
   <energy>
    <i name="e_fr_energy">   -198.72057041 </i>
    <i name="e_wo_entrp">   -198.72057041 </i>
    <i name="e_0_energy">   -198.72057041 </i>
   </energy>
  </scstep>
  <scstep>
   <time name="dav">  127.78  129.05</time>
   <time name="total">  134.32  135.64</time>
   <energy>
    <i name="e_fr_energy">   -198.72071303 </i>
    <i name="e_wo_entrp">   -198.72071303 </i>
    <i name="e_0_energy">   -198.72071303 </i>
   </energy>
  </scstep>
  <scstep>
   <time name="dav">  116.21  117.36</time>
   <time name="total">  122.76  123.96</time>
   <energy>
    <i name="e_fr_energy">   -198.72076541 </i>
    <i name="e_wo_entrp">   -198.72076541 </i>
    <i name="e_0_energy">   -198.72076541 </i>
   </energy>
  </scstep>
  <scstep>
   <time name="dav">   97.15   98.11</time>
   <time name="total">  103.70  104.70</time>
   <energy>
    <i name="e_fr_energy">   -198.72081081 </i>
    <i name="e_wo_entrp">   -198.72081081 </i>
    <i name="e_0_energy">   -198.72081081 </i>
   </energy>
  </scstep>
  <scstep>
   <time name="dav">   94.37   95.30</time>
   <time name="total">  100.90  101.87</time>
   <energy>
    <i name="e_fr_energy">   -198.72081955 </i>
    <i name="e_wo_entrp">   -198.72081955 </i>
    <i name="e_0_energy">   -198.72081955 </i>
   </energy>
  </scstep>
  <scstep>
   <time name="dav">   89.82   90.70</time>
   <time name="total">   96.37   97.29</time>
   <energy>
    <i name="e_fr_energy">   -198.72082427 </i>
    <i name="e_wo_entrp">   -198.72082427 </i>
    <i name="e_0_energy">   -198.72082427 </i>
   </energy>
  </scstep>
  <scstep>
   <time name="dav">   88.62   89.50</time>
   <time name="total">   95.17   96.08</time>
   <energy>
    <i name="e_fr_energy">   -198.72082572 </i>
    <i name="e_wo_entrp">   -198.72082572 </i>
    <i name="e_0_energy">   -198.72082572 </i>
   </energy>
  </scstep>
  <scstep>
   <time name="dav">   85.15   85.99</time>
   <time name="total">   91.69   92.58</time>
   <energy>
    <i name="e_fr_energy">   -198.72082635 </i>
    <i name="e_wo_entrp">   -198.72082635 </i>
    <i name="e_0_energy">   -198.72082635 </i>
   </energy>
  </scstep>
  <scstep>
   <time name="dav">   87.34   88.20</time>
   <time name="total">   93.90   94.80</time>
   <energy>
    <i name="e_fr_energy">   -198.72082658 </i>
    <i name="e_wo_entrp">   -198.72082658 </i>
    <i name="e_0_energy">   -198.72082658 </i>
   </energy>
  </scstep>
  <scstep>
   <time name="dav">   84.58   85.41</time>
   <time name="total">   91.13   92.01</time>
   <energy>
    <i name="e_fr_energy">   -198.72082671 </i>
    <i name="e_wo_entrp">   -198.72082671 </i>
    <i name="e_0_energy">   -198.72082671 </i>
   </energy>
  </scstep>
  <scstep>
   <time name="dav">   83.30   84.12</time>
   <time name="total">   89.82   90.69</time>
   <energy>
    <i name="e_fr_energy">   -198.72082675 </i>
    <i name="e_wo_entrp">   -198.72082675 </i>
    <i name="e_0_energy">   -198.72082675 </i>
   </energy>
  </scstep>
  <scstep>
   <time name="dav">   74.94   75.68</time>
   <time name="total">   81.48   82.27</time>
   <energy>
    <i name="e_fr_energy">   -198.72082676 </i>
    <i name="e_wo_entrp">   -198.72082676 </i>
    <i name="e_0_energy">   -198.72082676 </i>
   </energy>
  </scstep>
  <scstep>
   <time name="dav">   73.96   74.69</time>
   <time name="total">   74.91   75.65</time>
   <energy>
    <i name="alphaZ">    121.62916447 </i>
    <i name="ewald">  64948.06596646 </i>
    <i name="hartreedc">-111905.12454955 </i>
    <i name="XCdc">     48.35170640 </i>
    <i name="pawpsdc">  38327.57208843 </i>
    <i name="pawaedc"> -36251.44898887 </i>
    <i name="eentropy">     -0.00000000 </i>
    <i name="bandstr">  -8198.05996522 </i>
    <i name="atom">  52710.29375111 </i>
    <i name="e_fr_energy">   -198.72082676 </i>
    <i name="e_wo_entrp">   -198.72082676 </i>
    <i name="e_0_energy">   -198.72082676 </i>
   </energy>
  </scstep>
  <structure>
   <crystal>
    <varray name="basis" >
     <v>      21.32465726      -0.00000000       0.00000000 </v>
     <v>     -10.66232863      18.46769492       0.00000000 </v>
     <v>       0.00000000       0.00000000      26.60855257 </v>
    </varray>
    <i name="volume">  10478.90738675 </i>
    <varray name="rec_basis" >
     <v>       0.04689407       0.02707430      -0.00000000 </v>
     <v>       0.00000000       0.05414861      -0.00000000 </v>
     <v>       0.00000000       0.00000000       0.03758190 </v>
    </varray>
   </crystal>
   <varray name="positions" >
    <v>       0.13333333       0.06666667       0.53165059 </v>
    <v>       0.33333333       0.06666667       0.53165059 </v>
    <v>       0.53333333       0.06666667       0.53165059 </v>
    <v>       0.73333333       0.06666667       0.53165059 </v>
    <v>       0.93333333       0.06666667       0.53165059 </v>
    <v>       0.13333333       0.26666667       0.53165059 </v>
    <v>       0.33333333       0.26666667       0.53165059 </v>
    <v>       0.53333333       0.26666667       0.53165059 </v>
    <v>       0.73333333       0.26666667       0.53165059 </v>
    <v>       0.93333333       0.26666667       0.53165059 </v>
    <v>       0.13333333       0.46666667       0.53165059 </v>
    <v>       0.33333333       0.46666667       0.53165059 </v>
    <v>       0.53333333       0.46666667       0.53165059 </v>
    <v>       0.73333333       0.46666667       0.53165059 </v>
    <v>       0.93333333       0.46666667       0.53165059 </v>
    <v>       0.13333333       0.66666667       0.53165059 </v>
    <v>       0.33333333       0.66666667       0.53165059 </v>
    <v>       0.53333333       0.66666667       0.53165059 </v>
    <v>       0.73333333       0.66666667       0.53165059 </v>
    <v>       0.93333333       0.66666667       0.53165059 </v>
    <v>       0.13333333       0.86666667       0.53165059 </v>
    <v>       0.33333333       0.86666667       0.53165059 </v>
    <v>       0.53333333       0.86666667       0.53165059 </v>
    <v>       0.73333333       0.86666667       0.53165059 </v>
    <v>       0.93333333       0.86666667       0.53165059 </v>
    <v>       0.06695993       0.13333333       0.46864267 </v>
    <v>       0.26666667       0.13333333       0.46834941 </v>
    <v>       0.46666667       0.13333333       0.46834941 </v>
    <v>       0.66666667       0.13333333       0.46834941 </v>
    <v>       0.86666667       0.13333333       0.46834941 </v>
    <v>       0.06666667       0.33333333       0.46834941 </v>
    <v>       0.26666667       0.33333333       0.46834941 </v>
    <v>       0.46666667       0.33333333       0.46834941 </v>
    <v>       0.66666667       0.33333333       0.46834941 </v>
    <v>       0.86666667       0.33333333       0.46834941 </v>
    <v>       0.06666667       0.53333333       0.46834941 </v>
    <v>       0.26666667       0.53333333       0.46834941 </v>
    <v>       0.46666667       0.53333333       0.46834941 </v>
    <v>       0.66666667       0.53333333       0.46834941 </v>
    <v>       0.86666667       0.53333333       0.46834941 </v>
    <v>       0.06666667       0.73333333       0.46834941 </v>
    <v>       0.26666667       0.73333333       0.46834941 </v>
    <v>       0.46666667       0.73333333       0.46834941 </v>
    <v>       0.66666667       0.73333333       0.46834941 </v>
    <v>       0.86666667       0.73333333       0.46834941 </v>
    <v>       0.06666667       0.93333333       0.46834941 </v>
    <v>       0.26666667       0.93333333       0.46834941 </v>
    <v>       0.46666667       0.93333333       0.46834941 </v>
    <v>       0.66666667       0.93333333       0.46834941 </v>
    <v>       0.86666667       0.93333333       0.46834941 </v>
   </varray>
  </structure>
  <varray name="forces" >
   <v>       0.02943211      -0.01552523      -0.03383649 </v>
   <v>       0.00002827       0.00001884      -0.06586966 </v>
   <v>       0.00008459      -0.00020452      -0.06572936 </v>
   <v>       0.00075541      -0.00054355      -0.06515433 </v>
   <v>      -0.00175964      -0.00251708      -0.05950897 </v>
   <v>       0.00257134       0.01788836      -0.04678050 </v>
   <v>      -0.00000233       0.00005017      -0.06569494 </v>
   <v>      -0.00003010       0.00003947      -0.06592783 </v>
   <v>      -0.00002484       0.00004920      -0.06592326 </v>
   <v>      -0.00012801       0.00002369      -0.06576226 </v>
   <v>       0.00081690      -0.00036507      -0.06516847 </v>
   <v>      -0.00000304      -0.00000492      -0.06585477 </v>
   <v>      -0.00001075      -0.00001167      -0.06591002 </v>
   <v>      -0.00001198      -0.00000003      -0.06593276 </v>
   <v>      -0.00008428      -0.00003684      -0.06594114 </v>
   <v>       0.00031566       0.00013352      -0.06558858 </v>
   <v>      -0.00001020       0.00002137      -0.06592278 </v>
   <v>      -0.00003861       0.00007119      -0.06586992 </v>
   <v>      -0.00000470      -0.00001116      -0.06590744 </v>
   <v>      -0.00008363      -0.00002836      -0.06594324 </v>
   <v>       0.00004408       0.00041040      -0.06552653 </v>
   <v>       0.00001033      -0.00001167      -0.06591865 </v>
   <v>      -0.00002671      -0.00000936      -0.06592679 </v>
   <v>      -0.00004431       0.00048540      -0.06549739 </v>
   <v>      -0.00008801      -0.00007205      -0.06572861 </v>
   <v>      -0.03297839       0.00015490       0.01636459 </v>
   <v>       0.00087100       0.00111444       0.06439289 </v>
   <v>      -0.00008300       0.00010067       0.06570987 </v>
   <v>       0.00014008       0.00031005       0.06553245 </v>
   <v>       0.00124335       0.00117040       0.06410155 </v>
   <v>      -0.00111206      -0.00150171       0.06337646 </v>
   <v>       0.00067730       0.00003050       0.06511624 </v>
   <v>       0.00001894      -0.00003469       0.06590368 </v>
   <v>      -0.00000694      -0.00001451       0.06594682 </v>
   <v>       0.00007489       0.00000220       0.06595484 </v>
   <v>      -0.00023333      -0.00038577       0.06543401 </v>
   <v>       0.00007769       0.00003677       0.06592902 </v>
   <v>       0.00001156      -0.00001323       0.06580837 </v>
   <v>       0.00000993      -0.00000977       0.06594714 </v>
   <v>       0.00003477       0.00002405       0.06594627 </v>
   <v>      -0.00034581       0.00001858       0.06552254 </v>
   <v>       0.00002146       0.00001640       0.06595681 </v>
   <v>       0.00002270      -0.00001717       0.06593666 </v>
   <v>       0.00012220      -0.00003080       0.06571944 </v>
   <v>       0.00007888       0.00003237       0.06592895 </v>
   <v>      -0.00130265      -0.00111589       0.06352136 </v>
   <v>       0.00007823      -0.00000017       0.06595083 </v>
   <v>      -0.00000699       0.00000067       0.06594682 </v>
   <v>       0.00001437      -0.00003641       0.06590736 </v>
   <v>       0.00086424       0.00029802       0.06496974 </v>
  </varray>
  <varray name="stress" >
   <v>      -1.11012458      -0.00339954       0.00812807 </v>
   <v>      -0.00339956      -1.11013019      -0.00003911 </v>
   <v>       0.00812806      -0.00003911      -0.46988076 </v>
  </varray>
  <energy>
   <i name="e_fr_energy">   -198.72082676 </i>
   <i name="e_wo_entrp">   -198.72082676 </i>
   <i name="e_0_energy">   -198.72082676 </i>
  </energy>
  <time name="totalsc"> 3610.65 3646.11</time>
  <eigenvalues>
   <array>
    <dimension dim="1">band</dimension>
    <dimension dim="2">kpoint</dimension>
    <dimension dim="3">spin</dimension>
    <field>eigene</field>
    <field>occ</field>
    <set>
     <set comment="spin 1">
      <set comment="kpoint 1">
       <r>  -25.2697    1.0000 </r>
       <r>  -25.2697    1.0000 </r>
       <r>  -25.2696    1.0000 </r>
       <r>  -25.2695    1.0000 </r>
       <r>  -25.2695    1.0000 </r>
       <r>  -25.2695    1.0000 </r>
       <r>  -25.2660    1.0000 </r>
       <r>  -25.2660    1.0000 </r>
       <r>  -25.2660    1.0000 </r>
       <r>  -25.2659    1.0000 </r>
       <r>  -25.2659    1.0000 </r>
       <r>  -25.2659    1.0000 </r>
       <r>  -25.2657    1.0000 </r>
       <r>  -25.2657    1.0000 </r>
       <r>  -25.2657    1.0000 </r>
       <r>  -25.2656    1.0000 </r>
       <r>  -25.2656    1.0000 </r>
       <r>  -25.2656    1.0000 </r>
       <r>  -25.2655    1.0000 </r>
       <r>  -25.2655    1.0000 </r>
       <r>  -25.2654    1.0000 </r>
       <r>  -25.2654    1.0000 </r>
       <r>  -25.2653    1.0000 </r>
       <r>  -25.2652    1.0000 </r>
       <r>  -25.2636    1.0000 </r>
       <r>  -25.2636    1.0000 </r>
       <r>  -25.2575    1.0000 </r>
       <r>  -25.2574    1.0000 </r>
       <r>  -25.2574    1.0000 </r>
       <r>  -25.2573    1.0000 </r>
       <r>  -25.2572    1.0000 </r>
       <r>  -25.2572    1.0000 </r>
       <r>  -25.2523    1.0000 </r>
       <r>  -25.2522    1.0000 </r>
       <r>  -25.2522    1.0000 </r>
       <r>  -25.2522    1.0000 </r>
       <r>  -25.2522    1.0000 </r>
       <r>  -25.2521    1.0000 </r>
       <r>  -25.2500    1.0000 </r>
       <r>  -25.2500    1.0000 </r>
       <r>  -25.2500    1.0000 </r>
       <r>  -25.2499    1.0000 </r>
       <r>  -25.2498    1.0000 </r>
       <r>  -25.2497    1.0000 </r>
       <r>  -25.2479    1.0000 </r>
       <r>  -25.2478    1.0000 </r>
       <r>  -25.2478    1.0000 </r>
       <r>  -25.2477    1.0000 </r>
       <r>  -25.2476    1.0000 </r>
       <r>  -25.2476    1.0000 </r>
       <r>  -25.2320    1.0000 </r>
       <r>  -25.2320    1.0000 </r>
       <r>  -25.2319    1.0000 </r>
       <r>  -25.2318    1.0000 </r>
       <r>  -25.2318    1.0000 </r>
       <r>  -25.2318    1.0000 </r>
       <r>  -25.2310    1.0000 </r>
       <r>  -25.2309    1.0000 </r>
       <r>  -25.2309    1.0000 </r>
       <r>  -25.2308    1.0000 </r>
       <r>  -25.2307    1.0000 </r>
       <r>  -25.2307    1.0000 </r>
       <r>  -25.2298    1.0000 </r>
       <r>  -25.2298    1.0000 </r>
       <r>  -25.2297    1.0000 </r>
       <r>  -25.2297    1.0000 </r>
       <r>  -25.2296    1.0000 </r>
       <r>  -25.2295    1.0000 </r>
       <r>  -25.2267    1.0000 </r>
       <r>  -25.2267    1.0000 </r>
       <r>  -25.2267    1.0000 </r>
       <r>  -25.2266    1.0000 </r>
       <r>  -25.2265    1.0000 </r>
       <r>  -25.2264    1.0000 </r>
       <r>  -25.2259    1.0000 </r>
       <r>  -25.2259    1.0000 </r>
       <r>  -25.2259    1.0000 </r>
       <r>  -25.2257    1.0000 </r>
       <r>  -25.2257    1.0000 </r>
       <r>  -25.2257    1.0000 </r>
       <r>  -25.2249    1.0000 </r>
       <r>  -25.2249    1.0000 </r>
       <r>  -25.2249    1.0000 </r>
       <r>  -25.2248    1.0000 </r>
       <r>  -25.2248    1.0000 </r>
       <r>  -25.2247    1.0000 </r>
       <r>  -25.2239    1.0000 </r>
       <r>  -25.2238    1.0000 </r>
       <r>  -25.2238    1.0000 </r>
       <r>  -25.2238    1.0000 </r>
       <r>  -25.2237    1.0000 </r>
       <r>  -25.2237    1.0000 </r>
       <r>  -25.2237    1.0000 </r>
       <r>  -25.2235    1.0000 </r>
       <r>  -25.2235    1.0000 </r>
       <r>  -25.2234    1.0000 </r>
       <r>  -25.2234    1.0000 </r>
       <r>  -25.2231    1.0000 </r>
       <r>  -25.2229    1.0000 </r>
       <r>  -25.2228    1.0000 </r>
       <r>  -25.2137    1.0000 </r>
       <r>  -25.2101    1.0000 </r>
       <r>  -25.2100    1.0000 </r>
       <r>  -25.2100    1.0000 </r>
       <r>  -25.2100    1.0000 </r>
       <r>  -25.2099    1.0000 </r>
       <r>  -25.2095    1.0000 </r>
       <r>  -25.2051    1.0000 </r>
       <r>  -25.2050    1.0000 </r>
       <r>  -25.2050    1.0000 </r>
       <r>  -25.2048    1.0000 </r>
       <r>  -25.2048    1.0000 </r>
       <r>  -25.2048    1.0000 </r>
       <r>  -25.2036    1.0000 </r>
       <r>  -25.2035    1.0000 </r>
       <r>  -25.2034    1.0000 </r>
       <r>  -25.2033    1.0000 </r>
       <r>  -25.2032    1.0000 </r>
       <r>  -25.2031    1.0000 </r>
       <r>  -25.2023    1.0000 </r>
       <r>  -25.2023    1.0000 </r>
       <r>  -25.2022    1.0000 </r>
       <r>  -25.2022    1.0000 </r>
       <r>  -25.2018    1.0000 </r>
       <r>  -25.2016    1.0000 </r>
       <r>  -14.6110    1.0000 </r>
       <r>  -14.2646    1.0000 </r>
       <r>  -14.2617    1.0000 </r>
       <r>  -14.2616    1.0000 </r>
       <r>  -14.2615    1.0000 </r>
       <r>  -14.2615    1.0000 </r>
       <r>  -14.2613    1.0000 </r>
       <r>  -13.6477    1.0000 </r>
       <r>  -13.6456    1.0000 </r>
       <r>  -13.6452    1.0000 </r>
       <r>  -13.6452    1.0000 </r>
       <r>  -13.6451    1.0000 </r>
       <r>  -13.6448    1.0000 </r>
       <r>  -13.4321    1.0000 </r>
       <r>  -13.4304    1.0000 </r>
       <r>  -13.4300    1.0000 </r>
       <r>  -13.4299    1.0000 </r>
       <r>  -13.4299    1.0000 </r>
       <r>  -13.4296    1.0000 </r>
       <r>  -13.0376    1.0000 </r>
       <r>  -13.0368    1.0000 </r>
       <r>  -13.0363    1.0000 </r>
       <r>  -13.0363    1.0000 </r>
       <r>  -13.0362    1.0000 </r>
       <r>  -13.0359    1.0000 </r>
       <r>  -11.0834    1.0000 </r>
       <r>  -11.0820    1.0000 </r>
       <r>  -11.0819    1.0000 </r>
       <r>  -11.0818    1.0000 </r>
       <r>  -11.0818    1.0000 </r>
       <r>  -11.0815    1.0000 </r>
       <r>  -10.7539    1.0000 </r>
       <r>  -10.7532    1.0000 </r>
       <r>  -10.7530    1.0000 </r>
       <r>  -10.7529    1.0000 </r>
       <r>  -10.7529    1.0000 </r>
       <r>  -10.7520    1.0000 </r>
       <r>  -10.5048    1.0000 </r>
       <r>  -10.5045    1.0000 </r>
       <r>  -10.5045    1.0000 </r>
       <r>  -10.5044    1.0000 </r>
       <r>  -10.5043    1.0000 </r>
       <r>  -10.5030    1.0000 </r>
       <r>  -10.0616    1.0000 </r>
       <r>  -10.0616    1.0000 </r>
       <r>  -10.0615    1.0000 </r>
       <r>  -10.0614    1.0000 </r>
       <r>  -10.0614    1.0000 </r>
       <r>  -10.0582    1.0000 </r>
       <r>   -9.9358    1.0000 </r>
       <r>   -5.8755    1.0000 </r>
       <r>   -5.8742    1.0000 </r>
       <r>   -5.8736    1.0000 </r>
       <r>   -5.8735    1.0000 </r>
       <r>   -5.8734    1.0000 </r>
       <r>   -5.8732    1.0000 </r>
       <r>   -5.7659    1.0000 </r>
       <r>   -5.7656    1.0000 </r>
       <r>   -5.7653    1.0000 </r>
       <r>   -5.7652    1.0000 </r>
       <r>   -5.7650    1.0000 </r>
       <r>   -5.7646    1.0000 </r>
       <r>   -5.3660    1.0000 </r>
       <r>   -5.3654    1.0000 </r>
       <r>   -5.3648    1.0000 </r>
       <r>   -5.3648    1.0000 </r>
       <r>   -5.3647    1.0000 </r>
       <r>   -5.3641    1.0000 </r>
       <r>   -5.0554    1.0000 </r>
       <r>   -5.0548    1.0000 </r>
       <r>   -5.0535    1.0000 </r>
       <r>   -5.0534    1.0000 </r>
       <r>   -5.0532    1.0000 </r>
       <r>   -5.0531    1.0000 </r>
       <r>   -4.8863    1.0000 </r>
       <r>   -4.8857    1.0000 </r>
       <r>   -4.8856    1.0000 </r>
       <r>   -4.8853    1.0000 </r>
       <r>   -4.8852    1.0000 </r>
       <r>   -4.8844    1.0000 </r>
       <r>   -4.8558    1.0000 </r>
       <r>   -4.8555    1.0000 </r>
       <r>   -4.8547    1.0000 </r>
       <r>   -4.8543    1.0000 </r>
       <r>   -4.8542    1.0000 </r>
       <r>   -4.8539    1.0000 </r>
       <r>   -4.3582    1.0000 </r>
       <r>   -4.3580    1.0000 </r>
       <r>   -4.3579    1.0000 </r>
       <r>   -4.3579    1.0000 </r>
       <r>   -4.3575    1.0000 </r>
       <r>   -4.3566    1.0000 </r>
       <r>   -4.1941    1.0000 </r>
       <r>   -4.1931    1.0000 </r>
       <r>   -4.1920    1.0000 </r>
       <r>   -4.1918    1.0000 </r>
       <r>   -4.1918    1.0000 </r>
       <r>   -4.1917    1.0000 </r>
       <r>   -4.0860    1.0000 </r>
       <r>   -4.0859    1.0000 </r>
       <r>   -4.0858    1.0000 </r>
       <r>   -4.0856    1.0000 </r>
       <r>   -4.0853    1.0000 </r>
       <r>   -4.0841    1.0000 </r>
       <r>   -3.6087    1.0000 </r>
       <r>   -3.6084    1.0000 </r>
       <r>   -3.6084    1.0000 </r>
       <r>   -3.6084    1.0000 </r>
       <r>   -3.6079    1.0000 </r>
       <r>   -3.6063    1.0000 </r>
       <r>   -3.5046    1.0000 </r>
       <r>   -3.5030    1.0000 </r>
       <r>   -3.5021    1.0000 </r>
       <r>   -3.5020    1.0000 </r>
       <r>   -3.5019    1.0000 </r>
       <r>   -3.5018    1.0000 </r>
       <r>   -3.4343    1.0000 </r>
       <r>   -3.3946    1.0000 </r>
       <r>   -3.3946    1.0000 </r>
       <r>   -3.3946    1.0000 </r>
       <r>   -3.3945    1.0000 </r>
       <r>   -3.3945    1.0000 </r>
       <r>   -3.3907    1.0000 </r>
       <r>   -2.8551    1.0000 </r>
       <r>   -2.8541    1.0000 </r>
       <r>   -1.8967    0.0000 </r>
       <r>   -1.5159    0.0000 </r>
       <r>   -1.5155    0.0000 </r>
       <r>   -1.5150    0.0000 </r>
       <r>   -1.5148    0.0000 </r>
       <r>   -1.5143    0.0000 </r>
       <r>   -1.5138    0.0000 </r>
       <r>   -1.5048    0.0000 </r>
       <r>   -1.5044    0.0000 </r>
       <r>   -1.5039    0.0000 </r>
       <r>   -1.5038    0.0000 </r>
       <r>   -1.5036    0.0000 </r>
       <r>   -1.5020    0.0000 </r>
       <r>   -0.9853    0.0000 </r>
       <r>   -0.9852    0.0000 </r>
       <r>   -0.9852    0.0000 </r>
       <r>   -0.9849    0.0000 </r>
       <r>   -0.9839    0.0000 </r>
       <r>   -0.9823    0.0000 </r>
       <r>   -0.7385    0.0000 </r>
       <r>   -0.7382    0.0000 </r>
       <r>   -0.7382    0.0000 </r>
       <r>   -0.7375    0.0000 </r>
       <r>   -0.7369    0.0000 </r>
       <r>   -0.7365    0.0000 </r>
       <r>   -0.4285    0.0000 </r>
       <r>   -0.4283    0.0000 </r>
       <r>   -0.4283    0.0000 </r>
       <r>   -0.4283    0.0000 </r>
       <r>   -0.4273    0.0000 </r>
       <r>   -0.4256    0.0000 </r>
       <r>   -0.2265    0.0000 </r>
       <r>   -0.2262    0.0000 </r>
       <r>   -0.2260    0.0000 </r>
       <r>   -0.2251    0.0000 </r>
       <r>   -0.2246    0.0000 </r>
       <r>   -0.2237    0.0000 </r>
       <r>   -0.1921    0.0000 </r>
       <r>   -0.1909    0.0000 </r>
       <r>    0.0858    0.0000 </r>
       <r>    0.0860    0.0000 </r>
       <r>    0.0861    0.0000 </r>
       <r>    0.0862    0.0000 </r>
       <r>    0.0868    0.0000 </r>
       <r>    0.0880    0.0000 </r>
       <r>    0.1370    0.0000 </r>
       <r>    0.1371    0.0000 </r>
       <r>    0.1372    0.0000 </r>
       <r>    0.1376    0.0000 </r>
       <r>    0.1380    0.0000 </r>
       <r>    0.1387    0.0000 </r>
       <r>    0.2364    0.0000 </r>
       <r>    0.2364    0.0000 </r>
       <r>    0.2365    0.0000 </r>
       <r>    0.2371    0.0000 </r>
       <r>    0.2375    0.0000 </r>
       <r>    0.2399    0.0000 </r>
       <r>    0.3249    0.0000 </r>
      </set>
      <set comment="kpoint 2">
       <r>  -25.2701    1.0000 </r>
       <r>  -25.2696    1.0000 </r>
       <r>  -25.2696    1.0000 </r>
       <r>  -25.2689    1.0000 </r>
       <r>  -25.2688    1.0000 </r>
       <r>  -25.2687    1.0000 </r>
       <r>  -25.2674    1.0000 </r>
       <r>  -25.2673    1.0000 </r>
       <r>  -25.2666    1.0000 </r>
       <r>  -25.2665    1.0000 </r>
       <r>  -25.2664    1.0000 </r>
       <r>  -25.2660    1.0000 </r>
       <r>  -25.2660    1.0000 </r>
       <r>  -25.2659    1.0000 </r>
       <r>  -25.2659    1.0000 </r>
       <r>  -25.2657    1.0000 </r>
       <r>  -25.2657    1.0000 </r>
       <r>  -25.2656    1.0000 </r>
       <r>  -25.2655    1.0000 </r>
       <r>  -25.2651    1.0000 </r>
       <r>  -25.2650    1.0000 </r>
       <r>  -25.2647    1.0000 </r>
       <r>  -25.2639    1.0000 </r>
       <r>  -25.2639    1.0000 </r>
       <r>  -25.2637    1.0000 </r>
       <r>  -25.2631    1.0000 </r>
       <r>  -25.2598    1.0000 </r>
       <r>  -25.2585    1.0000 </r>
       <r>  -25.2584    1.0000 </r>
       <r>  -25.2560    1.0000 </r>
       <r>  -25.2559    1.0000 </r>
       <r>  -25.2546    1.0000 </r>
       <r>  -25.2533    1.0000 </r>
       <r>  -25.2533    1.0000 </r>
       <r>  -25.2517    1.0000 </r>
       <r>  -25.2516    1.0000 </r>
       <r>  -25.2514    1.0000 </r>
       <r>  -25.2513    1.0000 </r>
       <r>  -25.2512    1.0000 </r>
       <r>  -25.2511    1.0000 </r>
       <r>  -25.2501    1.0000 </r>
       <r>  -25.2501    1.0000 </r>
       <r>  -25.2495    1.0000 </r>
       <r>  -25.2488    1.0000 </r>
       <r>  -25.2488    1.0000 </r>
       <r>  -25.2486    1.0000 </r>
       <r>  -25.2485    1.0000 </r>
       <r>  -25.2473    1.0000 </r>
       <r>  -25.2473    1.0000 </r>
       <r>  -25.2466    1.0000 </r>
       <r>  -25.2325    1.0000 </r>
       <r>  -25.2322    1.0000 </r>
       <r>  -25.2321    1.0000 </r>
       <r>  -25.2316    1.0000 </r>
       <r>  -25.2316    1.0000 </r>
       <r>  -25.2313    1.0000 </r>
       <r>  -25.2313    1.0000 </r>
       <r>  -25.2310    1.0000 </r>
       <r>  -25.2308    1.0000 </r>
       <r>  -25.2306    1.0000 </r>
       <r>  -25.2303    1.0000 </r>
       <r>  -25.2302    1.0000 </r>
       <r>  -25.2301    1.0000 </r>
       <r>  -25.2300    1.0000 </r>
       <r>  -25.2299    1.0000 </r>
       <r>  -25.2298    1.0000 </r>
       <r>  -25.2290    1.0000 </r>
       <r>  -25.2290    1.0000 </r>
       <r>  -25.2281    1.0000 </r>
       <r>  -25.2274    1.0000 </r>
       <r>  -25.2274    1.0000 </r>
       <r>  -25.2268    1.0000 </r>
       <r>  -25.2267    1.0000 </r>
       <r>  -25.2260    1.0000 </r>
       <r>  -25.2260    1.0000 </r>
       <r>  -25.2258    1.0000 </r>
       <r>  -25.2257    1.0000 </r>
       <r>  -25.2253    1.0000 </r>
       <r>  -25.2252    1.0000 </r>
       <r>  -25.2252    1.0000 </r>
       <r>  -25.2250    1.0000 </r>
       <r>  -25.2249    1.0000 </r>
       <r>  -25.2247    1.0000 </r>
       <r>  -25.2246    1.0000 </r>
       <r>  -25.2244    1.0000 </r>
       <r>  -25.2244    1.0000 </r>
       <r>  -25.2240    1.0000 </r>
       <r>  -25.2239    1.0000 </r>
       <r>  -25.2239    1.0000 </r>
       <r>  -25.2238    1.0000 </r>
       <r>  -25.2238    1.0000 </r>
       <r>  -25.2237    1.0000 </r>
       <r>  -25.2237    1.0000 </r>
       <r>  -25.2236    1.0000 </r>
       <r>  -25.2235    1.0000 </r>
       <r>  -25.2235    1.0000 </r>
       <r>  -25.2233    1.0000 </r>
       <r>  -25.2231    1.0000 </r>
       <r>  -25.2230    1.0000 </r>
       <r>  -25.2229    1.0000 </r>
       <r>  -25.2135    1.0000 </r>
       <r>  -25.2115    1.0000 </r>
       <r>  -25.2106    1.0000 </r>
       <r>  -25.2105    1.0000 </r>
       <r>  -25.2090    1.0000 </r>
       <r>  -25.2089    1.0000 </r>
       <r>  -25.2081    1.0000 </r>
       <r>  -25.2063    1.0000 </r>
       <r>  -25.2062    1.0000 </r>
       <r>  -25.2049    1.0000 </r>
       <r>  -25.2048    1.0000 </r>
       <r>  -25.2047    1.0000 </r>
       <r>  -25.2040    1.0000 </r>
       <r>  -25.2040    1.0000 </r>
       <r>  -25.2038    1.0000 </r>
       <r>  -25.2037    1.0000 </r>
       <r>  -25.2029    1.0000 </r>
       <r>  -25.2028    1.0000 </r>
       <r>  -25.2026    1.0000 </r>
       <r>  -25.2025    1.0000 </r>
       <r>  -25.2024    1.0000 </r>
       <r>  -25.2023    1.0000 </r>
       <r>  -25.2022    1.0000 </r>
       <r>  -25.2018    1.0000 </r>
       <r>  -25.2016    1.0000 </r>
       <r>  -14.5885    1.0000 </r>
       <r>  -14.4118    1.0000 </r>
       <r>  -14.3260    1.0000 </r>
       <r>  -14.3251    1.0000 </r>
       <r>  -14.1585    1.0000 </r>
       <r>  -14.1577    1.0000 </r>
       <r>  -14.0775    1.0000 </r>
       <r>  -13.8436    1.0000 </r>
       <r>  -13.8428    1.0000 </r>
       <r>  -13.6426    1.0000 </r>
       <r>  -13.6311    1.0000 </r>
       <r>  -13.6307    1.0000 </r>
       <r>  -13.5196    1.0000 </r>
       <r>  -13.5192    1.0000 </r>
       <r>  -13.4381    1.0000 </r>
       <r>  -13.4374    1.0000 </r>
       <r>  -13.3276    1.0000 </r>
       <r>  -13.3272    1.0000 </r>
       <r>  -13.2689    1.0000 </r>
       <r>  -13.1194    1.0000 </r>
       <r>  -13.1190    1.0000 </r>
       <r>  -13.0939    1.0000 </r>
       <r>  -13.0933    1.0000 </r>
       <r>  -12.9823    1.0000 </r>
       <r>  -12.9818    1.0000 </r>
       <r>  -11.1167    1.0000 </r>
       <r>  -11.1159    1.0000 </r>
       <r>  -11.0255    1.0000 </r>
       <r>  -11.0251    1.0000 </r>
       <r>  -11.0250    1.0000 </r>
       <r>  -11.0247    1.0000 </r>
       <r>  -10.9217    1.0000 </r>
       <r>  -10.8538    1.0000 </r>
       <r>  -10.8533    1.0000 </r>
       <r>  -10.6923    1.0000 </r>
       <r>  -10.6919    1.0000 </r>
       <r>  -10.6570    1.0000 </r>
       <r>  -10.6566    1.0000 </r>
       <r>  -10.5405    1.0000 </r>
       <r>  -10.5233    1.0000 </r>
       <r>  -10.5230    1.0000 </r>
       <r>  -10.3405    1.0000 </r>
       <r>  -10.3397    1.0000 </r>
       <r>  -10.1739    1.0000 </r>
       <r>  -10.1203    1.0000 </r>
       <r>  -10.1193    1.0000 </r>
       <r>  -10.0295    1.0000 </r>
       <r>  -10.0284    1.0000 </r>
       <r>   -9.9925    1.0000 </r>
       <r>   -9.9402    1.0000 </r>
       <r>   -5.9608    1.0000 </r>
       <r>   -5.9603    1.0000 </r>
       <r>   -5.8254    1.0000 </r>
       <r>   -5.8250    1.0000 </r>
       <r>   -5.7909    1.0000 </r>
       <r>   -5.7906    1.0000 </r>
       <r>   -5.7728    1.0000 </r>
       <r>   -5.7648    1.0000 </r>
       <r>   -5.7644    1.0000 </r>
       <r>   -5.7281    1.0000 </r>
       <r>   -5.7279    1.0000 </r>
       <r>   -5.7003    1.0000 </r>
       <r>   -5.4871    1.0000 </r>
       <r>   -5.4870    1.0000 </r>
       <r>   -5.4624    1.0000 </r>
       <r>   -5.4619    1.0000 </r>
       <r>   -5.3347    1.0000 </r>
       <r>   -5.3344    1.0000 </r>
       <r>   -5.2560    1.0000 </r>
       <r>   -5.2313    1.0000 </r>
       <r>   -5.2306    1.0000 </r>
       <r>   -5.0709    1.0000 </r>
       <r>   -5.0706    1.0000 </r>
       <r>   -4.9787    1.0000 </r>
       <r>   -4.9781    1.0000 </r>
       <r>   -4.9022    1.0000 </r>
       <r>   -4.9016    1.0000 </r>
       <r>   -4.8777    1.0000 </r>
       <r>   -4.8772    1.0000 </r>
       <r>   -4.8072    1.0000 </r>
       <r>   -4.8068    1.0000 </r>
       <r>   -4.6581    1.0000 </r>
       <r>   -4.6578    1.0000 </r>
       <r>   -4.6386    1.0000 </r>
       <r>   -4.6382    1.0000 </r>
       <r>   -4.3892    1.0000 </r>
       <r>   -4.3889    1.0000 </r>
       <r>   -4.3882    1.0000 </r>
       <r>   -4.3877    1.0000 </r>
       <r>   -4.3514    1.0000 </r>
       <r>   -4.3162    1.0000 </r>
       <r>   -4.3158    1.0000 </r>
       <r>   -4.2942    1.0000 </r>
       <r>   -4.2939    1.0000 </r>
       <r>   -4.2646    1.0000 </r>
       <r>   -4.2549    1.0000 </r>
       <r>   -4.2411    1.0000 </r>
       <r>   -4.2400    1.0000 </r>
       <r>   -4.1250    1.0000 </r>
       <r>   -4.1249    1.0000 </r>
       <r>   -4.0749    1.0000 </r>
       <r>   -3.9093    1.0000 </r>
       <r>   -3.9088    1.0000 </r>
       <r>   -3.8604    1.0000 </r>
       <r>   -3.7928    1.0000 </r>
       <r>   -3.7918    1.0000 </r>
       <r>   -3.7728    1.0000 </r>
       <r>   -3.7725    1.0000 </r>
       <r>   -3.7215    1.0000 </r>
       <r>   -3.6445    1.0000 </r>
       <r>   -3.6437    1.0000 </r>
       <r>   -3.5294    1.0000 </r>
       <r>   -3.5291    1.0000 </r>
       <r>   -3.4821    1.0000 </r>
       <r>   -3.4812    1.0000 </r>
       <r>   -3.4727    1.0000 </r>
       <r>   -3.4260    1.0000 </r>
       <r>   -3.3922    1.0000 </r>
       <r>   -3.3913    1.0000 </r>
       <r>   -3.3834    1.0000 </r>
       <r>   -3.3532    1.0000 </r>
       <r>   -3.3519    1.0000 </r>
       <r>   -3.2761    1.0000 </r>
       <r>   -3.1981    1.0000 </r>
       <r>   -2.9130    1.0000 </r>
       <r>   -1.6714    0.0000 </r>
       <r>   -1.6454    0.0000 </r>
       <r>   -1.5910    0.0000 </r>
       <r>   -1.4648    0.0000 </r>
       <r>   -1.4642    0.0000 </r>
       <r>   -1.4551    0.0000 </r>
       <r>   -1.4541    0.0000 </r>
       <r>   -1.3813    0.0000 </r>
       <r>   -1.3183    0.0000 </r>
       <r>   -1.3178    0.0000 </r>
       <r>   -1.2770    0.0000 </r>
       <r>   -1.2409    0.0000 </r>
       <r>   -1.2398    0.0000 </r>
       <r>   -1.1688    0.0000 </r>
       <r>   -1.1684    0.0000 </r>
       <r>   -0.9529    0.0000 </r>
       <r>   -0.9526    0.0000 </r>
       <r>   -0.9509    0.0000 </r>
       <r>   -0.9505    0.0000 </r>
       <r>   -0.9416    0.0000 </r>
       <r>   -0.9410    0.0000 </r>
       <r>   -0.7718    0.0000 </r>
       <r>   -0.7714    0.0000 </r>
       <r>   -0.7295    0.0000 </r>
       <r>   -0.7293    0.0000 </r>
       <r>   -0.4361    0.0000 </r>
       <r>   -0.4356    0.0000 </r>
       <r>   -0.3989    0.0000 </r>
       <r>   -0.3296    0.0000 </r>
       <r>   -0.3290    0.0000 </r>
       <r>   -0.3134    0.0000 </r>
       <r>   -0.3129    0.0000 </r>
       <r>   -0.2786    0.0000 </r>
       <r>   -0.2453    0.0000 </r>
       <r>   -0.2448    0.0000 </r>
       <r>   -0.2011    0.0000 </r>
       <r>   -0.2008    0.0000 </r>
       <r>   -0.1818    0.0000 </r>
       <r>   -0.1813    0.0000 </r>
       <r>   -0.1509    0.0000 </r>
       <r>   -0.1368    0.0000 </r>
       <r>   -0.0933    0.0000 </r>
       <r>   -0.0930    0.0000 </r>
       <r>   -0.0610    0.0000 </r>
       <r>   -0.0604    0.0000 </r>
       <r>   -0.0159    0.0000 </r>
       <r>    0.0767    0.0000 </r>
       <r>    0.0777    0.0000 </r>
       <r>    0.1718    0.0000 </r>
       <r>    0.2150    0.0000 </r>
       <r>    0.2155    0.0000 </r>
       <r>    0.2307    0.0000 </r>
       <r>    0.2319    0.0000 </r>
       <r>    0.2525    0.0000 </r>
       <r>    0.3605    0.0000 </r>
       <r>    0.3614    0.0000 </r>
       <r>    0.3643    0.0000 </r>
       <r>    0.3720    0.0000 </r>
      </set>
      <set comment="kpoint 3">
       <r>  -25.2701    1.0000 </r>
       <r>  -25.2696    1.0000 </r>
       <r>  -25.2696    1.0000 </r>
       <r>  -25.2689    1.0000 </r>
       <r>  -25.2688    1.0000 </r>
       <r>  -25.2687    1.0000 </r>
       <r>  -25.2674    1.0000 </r>
       <r>  -25.2673    1.0000 </r>
       <r>  -25.2666    1.0000 </r>
       <r>  -25.2665    1.0000 </r>
       <r>  -25.2664    1.0000 </r>
       <r>  -25.2661    1.0000 </r>
       <r>  -25.2660    1.0000 </r>
       <r>  -25.2660    1.0000 </r>
       <r>  -25.2659    1.0000 </r>
       <r>  -25.2657    1.0000 </r>
       <r>  -25.2657    1.0000 </r>
       <r>  -25.2656    1.0000 </r>
       <r>  -25.2654    1.0000 </r>
       <r>  -25.2651    1.0000 </r>
       <r>  -25.2650    1.0000 </r>
       <r>  -25.2647    1.0000 </r>
       <r>  -25.2639    1.0000 </r>
       <r>  -25.2639    1.0000 </r>
       <r>  -25.2637    1.0000 </r>
       <r>  -25.2631    1.0000 </r>
       <r>  -25.2598    1.0000 </r>
       <r>  -25.2585    1.0000 </r>
       <r>  -25.2584    1.0000 </r>
       <r>  -25.2560    1.0000 </r>
       <r>  -25.2559    1.0000 </r>
       <r>  -25.2546    1.0000 </r>
       <r>  -25.2533    1.0000 </r>
       <r>  -25.2533    1.0000 </r>
       <r>  -25.2517    1.0000 </r>
       <r>  -25.2516    1.0000 </r>
       <r>  -25.2513    1.0000 </r>
       <r>  -25.2513    1.0000 </r>
       <r>  -25.2512    1.0000 </r>
       <r>  -25.2511    1.0000 </r>
       <r>  -25.2501    1.0000 </r>
       <r>  -25.2500    1.0000 </r>
       <r>  -25.2495    1.0000 </r>
       <r>  -25.2488    1.0000 </r>
       <r>  -25.2488    1.0000 </r>
       <r>  -25.2485    1.0000 </r>
       <r>  -25.2485    1.0000 </r>
       <r>  -25.2473    1.0000 </r>
       <r>  -25.2473    1.0000 </r>
       <r>  -25.2466    1.0000 </r>
       <r>  -25.2325    1.0000 </r>
       <r>  -25.2322    1.0000 </r>
       <r>  -25.2321    1.0000 </r>
       <r>  -25.2316    1.0000 </r>
       <r>  -25.2316    1.0000 </r>
       <r>  -25.2313    1.0000 </r>
       <r>  -25.2313    1.0000 </r>
       <r>  -25.2310    1.0000 </r>
       <r>  -25.2308    1.0000 </r>
       <r>  -25.2307    1.0000 </r>
       <r>  -25.2303    1.0000 </r>
       <r>  -25.2301    1.0000 </r>
       <r>  -25.2301    1.0000 </r>
       <r>  -25.2300    1.0000 </r>
       <r>  -25.2299    1.0000 </r>
       <r>  -25.2298    1.0000 </r>
       <r>  -25.2290    1.0000 </r>
       <r>  -25.2290    1.0000 </r>
       <r>  -25.2281    1.0000 </r>
       <r>  -25.2274    1.0000 </r>
       <r>  -25.2274    1.0000 </r>
       <r>  -25.2268    1.0000 </r>
       <r>  -25.2267    1.0000 </r>
       <r>  -25.2261    1.0000 </r>
       <r>  -25.2259    1.0000 </r>
       <r>  -25.2258    1.0000 </r>
       <r>  -25.2257    1.0000 </r>
       <r>  -25.2253    1.0000 </r>
       <r>  -25.2252    1.0000 </r>
       <r>  -25.2252    1.0000 </r>
       <r>  -25.2250    1.0000 </r>
       <r>  -25.2249    1.0000 </r>
       <r>  -25.2247    1.0000 </r>
       <r>  -25.2246    1.0000 </r>
       <r>  -25.2244    1.0000 </r>
       <r>  -25.2244    1.0000 </r>
       <r>  -25.2240    1.0000 </r>
       <r>  -25.2239    1.0000 </r>
       <r>  -25.2239    1.0000 </r>
       <r>  -25.2238    1.0000 </r>
       <r>  -25.2238    1.0000 </r>
       <r>  -25.2238    1.0000 </r>
       <r>  -25.2237    1.0000 </r>
       <r>  -25.2236    1.0000 </r>
       <r>  -25.2235    1.0000 </r>
       <r>  -25.2235    1.0000 </r>
       <r>  -25.2234    1.0000 </r>
       <r>  -25.2231    1.0000 </r>
       <r>  -25.2230    1.0000 </r>
       <r>  -25.2229    1.0000 </r>
       <r>  -25.2135    1.0000 </r>
       <r>  -25.2115    1.0000 </r>
       <r>  -25.2106    1.0000 </r>
       <r>  -25.2105    1.0000 </r>
       <r>  -25.2090    1.0000 </r>
       <r>  -25.2088    1.0000 </r>
       <r>  -25.2081    1.0000 </r>
       <r>  -25.2063    1.0000 </r>
       <r>  -25.2062    1.0000 </r>
       <r>  -25.2049    1.0000 </r>
       <r>  -25.2048    1.0000 </r>
       <r>  -25.2047    1.0000 </r>
       <r>  -25.2040    1.0000 </r>
       <r>  -25.2039    1.0000 </r>
       <r>  -25.2038    1.0000 </r>
       <r>  -25.2037    1.0000 </r>
       <r>  -25.2029    1.0000 </r>
       <r>  -25.2028    1.0000 </r>
       <r>  -25.2026    1.0000 </r>
       <r>  -25.2025    1.0000 </r>
       <r>  -25.2024    1.0000 </r>
       <r>  -25.2023    1.0000 </r>
       <r>  -25.2022    1.0000 </r>
       <r>  -25.2018    1.0000 </r>
       <r>  -25.2016    1.0000 </r>
       <r>  -14.5885    1.0000 </r>
       <r>  -14.4118    1.0000 </r>
       <r>  -14.3261    1.0000 </r>
       <r>  -14.3250    1.0000 </r>
       <r>  -14.1586    1.0000 </r>
       <r>  -14.1575    1.0000 </r>
       <r>  -14.0774    1.0000 </r>
       <r>  -13.8437    1.0000 </r>
       <r>  -13.8427    1.0000 </r>
       <r>  -13.6425    1.0000 </r>
       <r>  -13.6314    1.0000 </r>
       <r>  -13.6305    1.0000 </r>
       <r>  -13.5199    1.0000 </r>
       <r>  -13.5191    1.0000 </r>
       <r>  -13.4381    1.0000 </r>
       <r>  -13.4372    1.0000 </r>
       <r>  -13.3278    1.0000 </r>
       <r>  -13.3271    1.0000 </r>
       <r>  -13.2687    1.0000 </r>
       <r>  -13.1196    1.0000 </r>
       <r>  -13.1191    1.0000 </r>
       <r>  -13.0938    1.0000 </r>
       <r>  -13.0931    1.0000 </r>
       <r>  -12.9822    1.0000 </r>
       <r>  -12.9820    1.0000 </r>
       <r>  -11.1165    1.0000 </r>
       <r>  -11.1159    1.0000 </r>
       <r>  -11.0259    1.0000 </r>
       <r>  -11.0251    1.0000 </r>
       <r>  -11.0249    1.0000 </r>
       <r>  -11.0245    1.0000 </r>
       <r>  -10.9221    1.0000 </r>
       <r>  -10.8538    1.0000 </r>
       <r>  -10.8530    1.0000 </r>
       <r>  -10.6924    1.0000 </r>
       <r>  -10.6921    1.0000 </r>
       <r>  -10.6570    1.0000 </r>
       <r>  -10.6562    1.0000 </r>
       <r>  -10.5408    1.0000 </r>
       <r>  -10.5233    1.0000 </r>
       <r>  -10.5226    1.0000 </r>
       <r>  -10.3405    1.0000 </r>
       <r>  -10.3398    1.0000 </r>
       <r>  -10.1740    1.0000 </r>
       <r>  -10.1203    1.0000 </r>
       <r>  -10.1193    1.0000 </r>
       <r>  -10.0295    1.0000 </r>
       <r>  -10.0283    1.0000 </r>
       <r>   -9.9926    1.0000 </r>
       <r>   -9.9402    1.0000 </r>
       <r>   -5.9609    1.0000 </r>
       <r>   -5.9603    1.0000 </r>
       <r>   -5.8253    1.0000 </r>
       <r>   -5.8249    1.0000 </r>
       <r>   -5.7911    1.0000 </r>
       <r>   -5.7905    1.0000 </r>
       <r>   -5.7726    1.0000 </r>
       <r>   -5.7649    1.0000 </r>
       <r>   -5.7645    1.0000 </r>
       <r>   -5.7282    1.0000 </r>
       <r>   -5.7279    1.0000 </r>
       <r>   -5.7002    1.0000 </r>
       <r>   -5.4872    1.0000 </r>
       <r>   -5.4869    1.0000 </r>
       <r>   -5.4624    1.0000 </r>
       <r>   -5.4618    1.0000 </r>
       <r>   -5.3349    1.0000 </r>
       <r>   -5.3343    1.0000 </r>
       <r>   -5.2561    1.0000 </r>
       <r>   -5.2312    1.0000 </r>
       <r>   -5.2306    1.0000 </r>
       <r>   -5.0710    1.0000 </r>
       <r>   -5.0704    1.0000 </r>
       <r>   -4.9787    1.0000 </r>
       <r>   -4.9780    1.0000 </r>
       <r>   -4.9021    1.0000 </r>
       <r>   -4.9018    1.0000 </r>
       <r>   -4.8778    1.0000 </r>
       <r>   -4.8773    1.0000 </r>
       <r>   -4.8075    1.0000 </r>
       <r>   -4.8067    1.0000 </r>
       <r>   -4.6582    1.0000 </r>
       <r>   -4.6575    1.0000 </r>
       <r>   -4.6384    1.0000 </r>
       <r>   -4.6380    1.0000 </r>
       <r>   -4.3894    1.0000 </r>
       <r>   -4.3889    1.0000 </r>
       <r>   -4.3881    1.0000 </r>
       <r>   -4.3875    1.0000 </r>
       <r>   -4.3517    1.0000 </r>
       <r>   -4.3162    1.0000 </r>
       <r>   -4.3157    1.0000 </r>
       <r>   -4.2941    1.0000 </r>
       <r>   -4.2936    1.0000 </r>
       <r>   -4.2645    1.0000 </r>
       <r>   -4.2551    1.0000 </r>
       <r>   -4.2411    1.0000 </r>
       <r>   -4.2405    1.0000 </r>
       <r>   -4.1249    1.0000 </r>
       <r>   -4.1246    1.0000 </r>
       <r>   -4.0747    1.0000 </r>
       <r>   -3.9094    1.0000 </r>
       <r>   -3.9088    1.0000 </r>
       <r>   -3.8606    1.0000 </r>
       <r>   -3.7927    1.0000 </r>
       <r>   -3.7920    1.0000 </r>
       <r>   -3.7730    1.0000 </r>
       <r>   -3.7724    1.0000 </r>
       <r>   -3.7213    1.0000 </r>
       <r>   -3.6445    1.0000 </r>
       <r>   -3.6438    1.0000 </r>
       <r>   -3.5296    1.0000 </r>
       <r>   -3.5292    1.0000 </r>
       <r>   -3.4820    1.0000 </r>
       <r>   -3.4812    1.0000 </r>
       <r>   -3.4728    1.0000 </r>
       <r>   -3.4260    1.0000 </r>
       <r>   -3.3922    1.0000 </r>
       <r>   -3.3912    1.0000 </r>
       <r>   -3.3834    1.0000 </r>
       <r>   -3.3532    1.0000 </r>
       <r>   -3.3522    1.0000 </r>
       <r>   -3.2758    1.0000 </r>
       <r>   -3.1985    1.0000 </r>
       <r>   -2.9126    1.0000 </r>
       <r>   -1.6712    0.0000 </r>
       <r>   -1.6453    0.0000 </r>
       <r>   -1.5911    0.0000 </r>
       <r>   -1.4649    0.0000 </r>
       <r>   -1.4640    0.0000 </r>
       <r>   -1.4550    0.0000 </r>
       <r>   -1.4545    0.0000 </r>
       <r>   -1.3811    0.0000 </r>
       <r>   -1.3184    0.0000 </r>
       <r>   -1.3180    0.0000 </r>
       <r>   -1.2769    0.0000 </r>
       <r>   -1.2407    0.0000 </r>
       <r>   -1.2400    0.0000 </r>
       <r>   -1.1690    0.0000 </r>
       <r>   -1.1683    0.0000 </r>
       <r>   -0.9527    0.0000 </r>
       <r>   -0.9524    0.0000 </r>
       <r>   -0.9512    0.0000 </r>
       <r>   -0.9503    0.0000 </r>
       <r>   -0.9415    0.0000 </r>
       <r>   -0.9411    0.0000 </r>
       <r>   -0.7722    0.0000 </r>
       <r>   -0.7714    0.0000 </r>
       <r>   -0.7296    0.0000 </r>
       <r>   -0.7289    0.0000 </r>
       <r>   -0.4363    0.0000 </r>
       <r>   -0.4355    0.0000 </r>
       <r>   -0.3985    0.0000 </r>
       <r>   -0.3295    0.0000 </r>
       <r>   -0.3287    0.0000 </r>
       <r>   -0.3137    0.0000 </r>
       <r>   -0.3128    0.0000 </r>
       <r>   -0.2781    0.0000 </r>
       <r>   -0.2456    0.0000 </r>
       <r>   -0.2447    0.0000 </r>
       <r>   -0.2011    0.0000 </r>
       <r>   -0.2007    0.0000 </r>
       <r>   -0.1817    0.0000 </r>
       <r>   -0.1814    0.0000 </r>
       <r>   -0.1507    0.0000 </r>
       <r>   -0.1373    0.0000 </r>
       <r>   -0.0937    0.0000 </r>
       <r>   -0.0931    0.0000 </r>
       <r>   -0.0612    0.0000 </r>
       <r>   -0.0603    0.0000 </r>
       <r>   -0.0156    0.0000 </r>
       <r>    0.0767    0.0000 </r>
       <r>    0.0774    0.0000 </r>
       <r>    0.1715    0.0000 </r>
       <r>    0.2147    0.0000 </r>
       <r>    0.2154    0.0000 </r>
       <r>    0.2306    0.0000 </r>
       <r>    0.2316    0.0000 </r>
       <r>    0.2527    0.0000 </r>
       <r>    0.3602    0.0000 </r>
       <r>    0.3608    0.0000 </r>
       <r>    0.3632    0.0000 </r>
       <r>    0.3660    0.0000 </r>
      </set>
      <set comment="kpoint 4">
       <r>  -25.2701    1.0000 </r>
       <r>  -25.2696    1.0000 </r>
       <r>  -25.2695    1.0000 </r>
       <r>  -25.2689    1.0000 </r>
       <r>  -25.2689    1.0000 </r>
       <r>  -25.2687    1.0000 </r>
       <r>  -25.2673    1.0000 </r>
       <r>  -25.2673    1.0000 </r>
       <r>  -25.2666    1.0000 </r>
       <r>  -25.2664    1.0000 </r>
       <r>  -25.2664    1.0000 </r>
       <r>  -25.2661    1.0000 </r>
       <r>  -25.2661    1.0000 </r>
       <r>  -25.2660    1.0000 </r>
       <r>  -25.2660    1.0000 </r>
       <r>  -25.2657    1.0000 </r>
       <r>  -25.2657    1.0000 </r>
       <r>  -25.2655    1.0000 </r>
       <r>  -25.2654    1.0000 </r>
       <r>  -25.2651    1.0000 </r>
       <r>  -25.2650    1.0000 </r>
       <r>  -25.2647    1.0000 </r>
       <r>  -25.2639    1.0000 </r>
       <r>  -25.2639    1.0000 </r>
       <r>  -25.2637    1.0000 </r>
       <r>  -25.2631    1.0000 </r>
       <r>  -25.2598    1.0000 </r>
       <r>  -25.2585    1.0000 </r>
       <r>  -25.2584    1.0000 </r>
       <r>  -25.2560    1.0000 </r>
       <r>  -25.2559    1.0000 </r>
       <r>  -25.2546    1.0000 </r>
       <r>  -25.2533    1.0000 </r>
       <r>  -25.2533    1.0000 </r>
       <r>  -25.2516    1.0000 </r>
       <r>  -25.2516    1.0000 </r>
       <r>  -25.2513    1.0000 </r>
       <r>  -25.2513    1.0000 </r>
       <r>  -25.2512    1.0000 </r>
       <r>  -25.2511    1.0000 </r>
       <r>  -25.2501    1.0000 </r>
       <r>  -25.2500    1.0000 </r>
       <r>  -25.2495    1.0000 </r>
       <r>  -25.2489    1.0000 </r>
       <r>  -25.2488    1.0000 </r>
       <r>  -25.2485    1.0000 </r>
       <r>  -25.2485    1.0000 </r>
       <r>  -25.2473    1.0000 </r>
       <r>  -25.2473    1.0000 </r>
       <r>  -25.2466    1.0000 </r>
       <r>  -25.2325    1.0000 </r>
       <r>  -25.2322    1.0000 </r>
       <r>  -25.2321    1.0000 </r>
       <r>  -25.2316    1.0000 </r>
       <r>  -25.2316    1.0000 </r>
       <r>  -25.2313    1.0000 </r>
       <r>  -25.2313    1.0000 </r>
       <r>  -25.2309    1.0000 </r>
       <r>  -25.2308    1.0000 </r>
       <r>  -25.2307    1.0000 </r>
       <r>  -25.2303    1.0000 </r>
       <r>  -25.2302    1.0000 </r>
       <r>  -25.2301    1.0000 </r>
       <r>  -25.2300    1.0000 </r>
       <r>  -25.2299    1.0000 </r>
       <r>  -25.2298    1.0000 </r>
       <r>  -25.2290    1.0000 </r>
       <r>  -25.2290    1.0000 </r>
       <r>  -25.2281    1.0000 </r>
       <r>  -25.2274    1.0000 </r>
       <r>  -25.2274    1.0000 </r>
       <r>  -25.2267    1.0000 </r>
       <r>  -25.2267    1.0000 </r>
       <r>  -25.2261    1.0000 </r>
       <r>  -25.2259    1.0000 </r>
       <r>  -25.2258    1.0000 </r>
       <r>  -25.2257    1.0000 </r>
       <r>  -25.2253    1.0000 </r>
       <r>  -25.2252    1.0000 </r>
       <r>  -25.2252    1.0000 </r>
       <r>  -25.2249    1.0000 </r>
       <r>  -25.2249    1.0000 </r>
       <r>  -25.2247    1.0000 </r>
       <r>  -25.2247    1.0000 </r>
       <r>  -25.2244    1.0000 </r>
       <r>  -25.2244    1.0000 </r>
       <r>  -25.2240    1.0000 </r>
       <r>  -25.2239    1.0000 </r>
       <r>  -25.2239    1.0000 </r>
       <r>  -25.2238    1.0000 </r>
       <r>  -25.2238    1.0000 </r>
       <r>  -25.2238    1.0000 </r>
       <r>  -25.2237    1.0000 </r>
       <r>  -25.2236    1.0000 </r>
       <r>  -25.2235    1.0000 </r>
       <r>  -25.2235    1.0000 </r>
       <r>  -25.2234    1.0000 </r>
       <r>  -25.2231    1.0000 </r>
       <r>  -25.2231    1.0000 </r>
       <r>  -25.2229    1.0000 </r>
       <r>  -25.2135    1.0000 </r>
       <r>  -25.2115    1.0000 </r>
       <r>  -25.2107    1.0000 </r>
       <r>  -25.2105    1.0000 </r>
       <r>  -25.2090    1.0000 </r>
       <r>  -25.2088    1.0000 </r>
       <r>  -25.2081    1.0000 </r>
       <r>  -25.2063    1.0000 </r>
       <r>  -25.2062    1.0000 </r>
       <r>  -25.2049    1.0000 </r>
       <r>  -25.2048    1.0000 </r>
       <r>  -25.2047    1.0000 </r>
       <r>  -25.2040    1.0000 </r>
       <r>  -25.2039    1.0000 </r>
       <r>  -25.2038    1.0000 </r>
       <r>  -25.2037    1.0000 </r>
       <r>  -25.2029    1.0000 </r>
       <r>  -25.2028    1.0000 </r>
       <r>  -25.2026    1.0000 </r>
       <r>  -25.2024    1.0000 </r>
       <r>  -25.2024    1.0000 </r>
       <r>  -25.2023    1.0000 </r>
       <r>  -25.2023    1.0000 </r>
       <r>  -25.2018    1.0000 </r>
       <r>  -25.2016    1.0000 </r>
       <r>  -14.5885    1.0000 </r>
       <r>  -14.4118    1.0000 </r>
       <r>  -14.3261    1.0000 </r>
       <r>  -14.3250    1.0000 </r>
       <r>  -14.1586    1.0000 </r>
       <r>  -14.1576    1.0000 </r>
       <r>  -14.0774    1.0000 </r>
       <r>  -13.8436    1.0000 </r>
       <r>  -13.8427    1.0000 </r>
       <r>  -13.6424    1.0000 </r>
       <r>  -13.6315    1.0000 </r>
       <r>  -13.6306    1.0000 </r>
       <r>  -13.5201    1.0000 </r>
       <r>  -13.5191    1.0000 </r>
       <r>  -13.4379    1.0000 </r>
       <r>  -13.4373    1.0000 </r>
       <r>  -13.3279    1.0000 </r>
       <r>  -13.3271    1.0000 </r>
       <r>  -13.2685    1.0000 </r>
       <r>  -13.1197    1.0000 </r>
       <r>  -13.1191    1.0000 </r>
       <r>  -13.0935    1.0000 </r>
       <r>  -13.0932    1.0000 </r>
       <r>  -12.9825    1.0000 </r>
       <r>  -12.9819    1.0000 </r>
       <r>  -11.1162    1.0000 </r>
       <r>  -11.1159    1.0000 </r>
       <r>  -11.0262    1.0000 </r>
       <r>  -11.0251    1.0000 </r>
       <r>  -11.0249    1.0000 </r>
       <r>  -11.0246    1.0000 </r>
       <r>  -10.9225    1.0000 </r>
       <r>  -10.8535    1.0000 </r>
       <r>  -10.8530    1.0000 </r>
       <r>  -10.6925    1.0000 </r>
       <r>  -10.6923    1.0000 </r>
       <r>  -10.6568    1.0000 </r>
       <r>  -10.6561    1.0000 </r>
       <r>  -10.5410    1.0000 </r>
       <r>  -10.5232    1.0000 </r>
       <r>  -10.5224    1.0000 </r>
       <r>  -10.3405    1.0000 </r>
       <r>  -10.3399    1.0000 </r>
       <r>  -10.1741    1.0000 </r>
       <r>  -10.1202    1.0000 </r>
       <r>  -10.1192    1.0000 </r>
       <r>  -10.0295    1.0000 </r>
       <r>  -10.0282    1.0000 </r>
       <r>   -9.9926    1.0000 </r>
       <r>   -9.9402    1.0000 </r>
       <r>   -5.9609    1.0000 </r>
       <r>   -5.9605    1.0000 </r>
       <r>   -5.8253    1.0000 </r>
       <r>   -5.8246    1.0000 </r>
       <r>   -5.7911    1.0000 </r>
       <r>   -5.7906    1.0000 </r>
       <r>   -5.7725    1.0000 </r>
       <r>   -5.7649    1.0000 </r>
       <r>   -5.7646    1.0000 </r>
       <r>   -5.7282    1.0000 </r>
       <r>   -5.7280    1.0000 </r>
       <r>   -5.7002    1.0000 </r>
       <r>   -5.4873    1.0000 </r>
       <r>   -5.4868    1.0000 </r>
       <r>   -5.4622    1.0000 </r>
       <r>   -5.4619    1.0000 </r>
       <r>   -5.3350    1.0000 </r>
       <r>   -5.3343    1.0000 </r>
       <r>   -5.2563    1.0000 </r>
       <r>   -5.2310    1.0000 </r>
       <r>   -5.2307    1.0000 </r>
       <r>   -5.0710    1.0000 </r>
       <r>   -5.0703    1.0000 </r>
       <r>   -4.9784    1.0000 </r>
       <r>   -4.9781    1.0000 </r>
       <r>   -4.9024    1.0000 </r>
       <r>   -4.9016    1.0000 </r>
       <r>   -4.8779    1.0000 </r>
       <r>   -4.8775    1.0000 </r>
       <r>   -4.8076    1.0000 </r>
       <r>   -4.8068    1.0000 </r>
       <r>   -4.6580    1.0000 </r>
       <r>   -4.6576    1.0000 </r>
       <r>   -4.6383    1.0000 </r>
       <r>   -4.6377    1.0000 </r>
       <r>   -4.3896    1.0000 </r>
       <r>   -4.3890    1.0000 </r>
       <r>   -4.3879    1.0000 </r>
       <r>   -4.3876    1.0000 </r>
       <r>   -4.3519    1.0000 </r>
       <r>   -4.3162    1.0000 </r>
       <r>   -4.3157    1.0000 </r>
       <r>   -4.2939    1.0000 </r>
       <r>   -4.2936    1.0000 </r>
       <r>   -4.2644    1.0000 </r>
       <r>   -4.2554    1.0000 </r>
       <r>   -4.2410    1.0000 </r>
       <r>   -4.2409    1.0000 </r>
       <r>   -4.1247    1.0000 </r>
       <r>   -4.1245    1.0000 </r>
       <r>   -4.0746    1.0000 </r>
       <r>   -3.9092    1.0000 </r>
       <r>   -3.9089    1.0000 </r>
       <r>   -3.8608    1.0000 </r>
       <r>   -3.7925    1.0000 </r>
       <r>   -3.7922    1.0000 </r>
       <r>   -3.7731    1.0000 </r>
       <r>   -3.7724    1.0000 </r>
       <r>   -3.7211    1.0000 </r>
       <r>   -3.6443    1.0000 </r>
       <r>   -3.6439    1.0000 </r>
       <r>   -3.5298    1.0000 </r>
       <r>   -3.5293    1.0000 </r>
       <r>   -3.4819    1.0000 </r>
       <r>   -3.4812    1.0000 </r>
       <r>   -3.4728    1.0000 </r>
       <r>   -3.4260    1.0000 </r>
       <r>   -3.3921    1.0000 </r>
       <r>   -3.3911    1.0000 </r>
       <r>   -3.3833    1.0000 </r>
       <r>   -3.3531    1.0000 </r>
       <r>   -3.3525    1.0000 </r>
       <r>   -3.2755    1.0000 </r>
       <r>   -3.1988    1.0000 </r>
       <r>   -2.9122    1.0000 </r>
       <r>   -1.6710    0.0000 </r>
       <r>   -1.6451    0.0000 </r>
       <r>   -1.5911    0.0000 </r>
       <r>   -1.4649    0.0000 </r>
       <r>   -1.4641    0.0000 </r>
       <r>   -1.4551    0.0000 </r>
       <r>   -1.4546    0.0000 </r>
       <r>   -1.3810    0.0000 </r>
       <r>   -1.3185    0.0000 </r>
       <r>   -1.3182    0.0000 </r>
       <r>   -1.2767    0.0000 </r>
       <r>   -1.2408    0.0000 </r>
       <r>   -1.2401    0.0000 </r>
       <r>   -1.1691    0.0000 </r>
       <r>   -1.1683    0.0000 </r>
       <r>   -0.9528    0.0000 </r>
       <r>   -0.9522    0.0000 </r>
       <r>   -0.9512    0.0000 </r>
       <r>   -0.9502    0.0000 </r>
       <r>   -0.9415    0.0000 </r>
       <r>   -0.9412    0.0000 </r>
       <r>   -0.7722    0.0000 </r>
       <r>   -0.7718    0.0000 </r>
       <r>   -0.7297    0.0000 </r>
       <r>   -0.7286    0.0000 </r>
       <r>   -0.4362    0.0000 </r>
       <r>   -0.4358    0.0000 </r>
       <r>   -0.3981    0.0000 </r>
       <r>   -0.3295    0.0000 </r>
       <r>   -0.3283    0.0000 </r>
       <r>   -0.3136    0.0000 </r>
       <r>   -0.3130    0.0000 </r>
       <r>   -0.2776    0.0000 </r>
       <r>   -0.2457    0.0000 </r>
       <r>   -0.2448    0.0000 </r>
       <r>   -0.2012    0.0000 </r>
       <r>   -0.2006    0.0000 </r>
       <r>   -0.1816    0.0000 </r>
       <r>   -0.1813    0.0000 </r>
       <r>   -0.1505    0.0000 </r>
       <r>   -0.1378    0.0000 </r>
       <r>   -0.0939    0.0000 </r>
       <r>   -0.0935    0.0000 </r>
       <r>   -0.0610    0.0000 </r>
       <r>   -0.0605    0.0000 </r>
       <r>   -0.0152    0.0000 </r>
       <r>    0.0767    0.0000 </r>
       <r>    0.0770    0.0000 </r>
       <r>    0.1711    0.0000 </r>
       <r>    0.2147    0.0000 </r>
       <r>    0.2150    0.0000 </r>
       <r>    0.2306    0.0000 </r>
       <r>    0.2312    0.0000 </r>
       <r>    0.2530    0.0000 </r>
       <r>    0.3613    0.0000 </r>
       <r>    0.3623    0.0000 </r>
       <r>    0.3706    0.0000 </r>
       <r>    0.3867    0.0000 </r>
      </set>
      <set comment="kpoint 5">
       <r>  -25.2703    1.0000 </r>
       <r>  -25.2689    1.0000 </r>
       <r>  -25.2688    1.0000 </r>
       <r>  -25.2687    1.0000 </r>
       <r>  -25.2687    1.0000 </r>
       <r>  -25.2677    1.0000 </r>
       <r>  -25.2677    1.0000 </r>
       <r>  -25.2677    1.0000 </r>
       <r>  -25.2677    1.0000 </r>
       <r>  -25.2676    1.0000 </r>
       <r>  -25.2675    1.0000 </r>
       <r>  -25.2661    1.0000 </r>
       <r>  -25.2661    1.0000 </r>
       <r>  -25.2661    1.0000 </r>
       <r>  -25.2660    1.0000 </r>
       <r>  -25.2657    1.0000 </r>
       <r>  -25.2656    1.0000 </r>
       <r>  -25.2656    1.0000 </r>
       <r>  -25.2655    1.0000 </r>
       <r>  -25.2649    1.0000 </r>
       <r>  -25.2648    1.0000 </r>
       <r>  -25.2641    1.0000 </r>
       <r>  -25.2640    1.0000 </r>
       <r>  -25.2632    1.0000 </r>
       <r>  -25.2632    1.0000 </r>
       <r>  -25.2619    1.0000 </r>
       <r>  -25.2618    1.0000 </r>
       <r>  -25.2590    1.0000 </r>
       <r>  -25.2589    1.0000 </r>
       <r>  -25.2546    1.0000 </r>
       <r>  -25.2546    1.0000 </r>
       <r>  -25.2545    1.0000 </r>
       <r>  -25.2545    1.0000 </r>
       <r>  -25.2519    1.0000 </r>
       <r>  -25.2519    1.0000 </r>
       <r>  -25.2518    1.0000 </r>
       <r>  -25.2518    1.0000 </r>
       <r>  -25.2506    1.0000 </r>
       <r>  -25.2506    1.0000 </r>
       <r>  -25.2506    1.0000 </r>
       <r>  -25.2504    1.0000 </r>
       <r>  -25.2503    1.0000 </r>
       <r>  -25.2503    1.0000 </r>
       <r>  -25.2502    1.0000 </r>
       <r>  -25.2501    1.0000 </r>
       <r>  -25.2478    1.0000 </r>
       <r>  -25.2477    1.0000 </r>
       <r>  -25.2475    1.0000 </r>
       <r>  -25.2475    1.0000 </r>
       <r>  -25.2462    1.0000 </r>
       <r>  -25.2327    1.0000 </r>
       <r>  -25.2322    1.0000 </r>
       <r>  -25.2321    1.0000 </r>
       <r>  -25.2320    1.0000 </r>
       <r>  -25.2319    1.0000 </r>
       <r>  -25.2307    1.0000 </r>
       <r>  -25.2307    1.0000 </r>
       <r>  -25.2307    1.0000 </r>
       <r>  -25.2306    1.0000 </r>
       <r>  -25.2306    1.0000 </r>
       <r>  -25.2305    1.0000 </r>
       <r>  -25.2305    1.0000 </r>
       <r>  -25.2304    1.0000 </r>
       <r>  -25.2296    1.0000 </r>
       <r>  -25.2295    1.0000 </r>
       <r>  -25.2295    1.0000 </r>
       <r>  -25.2294    1.0000 </r>
       <r>  -25.2283    1.0000 </r>
       <r>  -25.2282    1.0000 </r>
       <r>  -25.2282    1.0000 </r>
       <r>  -25.2281    1.0000 </r>
       <r>  -25.2273    1.0000 </r>
       <r>  -25.2272    1.0000 </r>
       <r>  -25.2258    1.0000 </r>
       <r>  -25.2257    1.0000 </r>
       <r>  -25.2256    1.0000 </r>
       <r>  -25.2256    1.0000 </r>
       <r>  -25.2256    1.0000 </r>
       <r>  -25.2254    1.0000 </r>
       <r>  -25.2245    1.0000 </r>
       <r>  -25.2244    1.0000 </r>
       <r>  -25.2243    1.0000 </r>
       <r>  -25.2243    1.0000 </r>
       <r>  -25.2243    1.0000 </r>
       <r>  -25.2243    1.0000 </r>
       <r>  -25.2242    1.0000 </r>
       <r>  -25.2242    1.0000 </r>
       <r>  -25.2242    1.0000 </r>
       <r>  -25.2241    1.0000 </r>
       <r>  -25.2241    1.0000 </r>
       <r>  -25.2239    1.0000 </r>
       <r>  -25.2238    1.0000 </r>
       <r>  -25.2238    1.0000 </r>
       <r>  -25.2237    1.0000 </r>
       <r>  -25.2237    1.0000 </r>
       <r>  -25.2235    1.0000 </r>
       <r>  -25.2233    1.0000 </r>
       <r>  -25.2232    1.0000 </r>
       <r>  -25.2231    1.0000 </r>
       <r>  -25.2230    1.0000 </r>
       <r>  -25.2128    1.0000 </r>
       <r>  -25.2127    1.0000 </r>
       <r>  -25.2109    1.0000 </r>
       <r>  -25.2107    1.0000 </r>
       <r>  -25.2077    1.0000 </r>
       <r>  -25.2077    1.0000 </r>
       <r>  -25.2076    1.0000 </r>
       <r>  -25.2075    1.0000 </r>
       <r>  -25.2064    1.0000 </r>
       <r>  -25.2063    1.0000 </r>
       <r>  -25.2046    1.0000 </r>
       <r>  -25.2045    1.0000 </r>
       <r>  -25.2044    1.0000 </r>
       <r>  -25.2043    1.0000 </r>
       <r>  -25.2030    1.0000 </r>
       <r>  -25.2030    1.0000 </r>
       <r>  -25.2029    1.0000 </r>
       <r>  -25.2028    1.0000 </r>
       <r>  -25.2026    1.0000 </r>
       <r>  -25.2025    1.0000 </r>
       <r>  -25.2024    1.0000 </r>
       <r>  -25.2023    1.0000 </r>
       <r>  -25.2022    1.0000 </r>
       <r>  -25.2018    1.0000 </r>
       <r>  -25.2016    1.0000 </r>
       <r>  -14.5222    1.0000 </r>
       <r>  -14.5210    1.0000 </r>
       <r>  -14.3473    1.0000 </r>
       <r>  -14.3464    1.0000 </r>
       <r>  -14.0182    1.0000 </r>
       <r>  -14.0165    1.0000 </r>
       <r>  -14.0162    1.0000 </r>
       <r>  -14.0161    1.0000 </r>
       <r>  -13.8670    1.0000 </r>
       <r>  -13.8656    1.0000 </r>
       <r>  -13.5887    1.0000 </r>
       <r>  -13.5879    1.0000 </r>
       <r>  -13.5876    1.0000 </r>
       <r>  -13.5875    1.0000 </r>
       <r>  -13.2432    1.0000 </r>
       <r>  -13.2417    1.0000 </r>
       <r>  -13.2414    1.0000 </r>
       <r>  -13.2412    1.0000 </r>
       <r>  -13.2207    1.0000 </r>
       <r>  -13.2201    1.0000 </r>
       <r>  -13.2198    1.0000 </r>
       <r>  -13.2195    1.0000 </r>
       <r>  -13.2065    1.0000 </r>
       <r>  -12.9634    1.0000 </r>
       <r>  -12.9628    1.0000 </r>
       <r>  -11.1280    1.0000 </r>
       <r>  -11.1272    1.0000 </r>
       <r>  -10.9879    1.0000 </r>
       <r>  -10.9480    1.0000 </r>
       <r>  -10.9469    1.0000 </r>
       <r>  -10.9468    1.0000 </r>
       <r>  -10.9467    1.0000 </r>
       <r>  -10.8795    1.0000 </r>
       <r>  -10.8793    1.0000 </r>
       <r>  -10.8793    1.0000 </r>
       <r>  -10.8785    1.0000 </r>
       <r>  -10.5769    1.0000 </r>
       <r>  -10.5764    1.0000 </r>
       <r>  -10.5763    1.0000 </r>
       <r>  -10.5763    1.0000 </r>
       <r>  -10.3376    1.0000 </r>
       <r>  -10.3367    1.0000 </r>
       <r>  -10.2120    1.0000 </r>
       <r>  -10.2118    1.0000 </r>
       <r>  -10.2118    1.0000 </r>
       <r>  -10.2102    1.0000 </r>
       <r>  -10.0194    1.0000 </r>
       <r>  -10.0183    1.0000 </r>
       <r>   -9.9571    1.0000 </r>
       <r>   -9.9557    1.0000 </r>
       <r>   -5.9964    1.0000 </r>
       <r>   -5.9958    1.0000 </r>
       <r>   -5.7679    1.0000 </r>
       <r>   -5.7594    1.0000 </r>
       <r>   -5.7591    1.0000 </r>
       <r>   -5.7587    1.0000 </r>
       <r>   -5.7582    1.0000 </r>
       <r>   -5.6820    1.0000 </r>
       <r>   -5.6811    1.0000 </r>
       <r>   -5.6804    1.0000 </r>
       <r>   -5.6804    1.0000 </r>
       <r>   -5.6357    1.0000 </r>
       <r>   -5.6353    1.0000 </r>
       <r>   -5.6352    1.0000 </r>
       <r>   -5.6350    1.0000 </r>
       <r>   -5.5382    1.0000 </r>
       <r>   -5.5373    1.0000 </r>
       <r>   -5.2379    1.0000 </r>
       <r>   -5.2376    1.0000 </r>
       <r>   -5.2368    1.0000 </r>
       <r>   -5.2364    1.0000 </r>
       <r>   -5.1330    1.0000 </r>
       <r>   -5.1322    1.0000 </r>
       <r>   -5.1319    1.0000 </r>
       <r>   -5.1313    1.0000 </r>
       <r>   -4.9028    1.0000 </r>
       <r>   -4.9022    1.0000 </r>
       <r>   -4.6307    1.0000 </r>
       <r>   -4.6301    1.0000 </r>
       <r>   -4.6297    1.0000 </r>
       <r>   -4.6295    1.0000 </r>
       <r>   -4.5852    1.0000 </r>
       <r>   -4.5846    1.0000 </r>
       <r>   -4.5843    1.0000 </r>
       <r>   -4.5841    1.0000 </r>
       <r>   -4.5337    1.0000 </r>
       <r>   -4.5333    1.0000 </r>
       <r>   -4.3953    1.0000 </r>
       <r>   -4.3949    1.0000 </r>
       <r>   -4.3189    1.0000 </r>
       <r>   -4.2889    1.0000 </r>
       <r>   -4.2061    1.0000 </r>
       <r>   -4.2059    1.0000 </r>
       <r>   -4.2050    1.0000 </r>
       <r>   -4.2047    1.0000 </r>
       <r>   -4.2047    1.0000 </r>
       <r>   -4.2045    1.0000 </r>
       <r>   -4.2043    1.0000 </r>
       <r>   -4.2035    1.0000 </r>
       <r>   -4.0174    1.0000 </r>
       <r>   -4.0172    1.0000 </r>
       <r>   -4.0170    1.0000 </r>
       <r>   -4.0156    1.0000 </r>
       <r>   -3.9165    1.0000 </r>
       <r>   -3.9148    1.0000 </r>
       <r>   -3.7797    1.0000 </r>
       <r>   -3.7792    1.0000 </r>
       <r>   -3.7487    1.0000 </r>
       <r>   -3.7485    1.0000 </r>
       <r>   -3.7485    1.0000 </r>
       <r>   -3.7472    1.0000 </r>
       <r>   -3.6383    1.0000 </r>
       <r>   -3.6373    1.0000 </r>
       <r>   -3.5900    1.0000 </r>
       <r>   -3.5897    1.0000 </r>
       <r>   -3.4137    1.0000 </r>
       <r>   -3.4135    1.0000 </r>
       <r>   -3.4134    1.0000 </r>
       <r>   -3.4122    1.0000 </r>
       <r>   -3.4038    1.0000 </r>
       <r>   -3.4022    1.0000 </r>
       <r>   -3.3442    1.0000 </r>
       <r>   -3.3429    1.0000 </r>
       <r>   -3.0680    1.0000 </r>
       <r>   -3.0660    1.0000 </r>
       <r>   -1.7140    0.0000 </r>
       <r>   -1.7137    0.0000 </r>
       <r>   -1.3200    0.0000 </r>
       <r>   -1.2409    0.0000 </r>
       <r>   -1.2404    0.0000 </r>
       <r>   -1.2399    0.0000 </r>
       <r>   -1.2396    0.0000 </r>
       <r>   -1.2376    0.0000 </r>
       <r>   -1.2370    0.0000 </r>
       <r>   -1.2289    0.0000 </r>
       <r>   -1.2287    0.0000 </r>
       <r>   -1.2108    0.0000 </r>
       <r>   -1.2107    0.0000 </r>
       <r>   -1.2103    0.0000 </r>
       <r>   -1.2088    0.0000 </r>
       <r>   -0.9431    0.0000 </r>
       <r>   -0.9430    0.0000 </r>
       <r>   -0.9422    0.0000 </r>
       <r>   -0.9416    0.0000 </r>
       <r>   -0.9087    0.0000 </r>
       <r>   -0.9077    0.0000 </r>
       <r>   -0.8603    0.0000 </r>
       <r>   -0.8602    0.0000 </r>
       <r>   -0.8594    0.0000 </r>
       <r>   -0.8586    0.0000 </r>
       <r>   -0.5346    0.0000 </r>
       <r>   -0.5341    0.0000 </r>
       <r>   -0.4714    0.0000 </r>
       <r>   -0.4223    0.0000 </r>
       <r>   -0.4219    0.0000 </r>
       <r>   -0.4209    0.0000 </r>
       <r>   -0.4203    0.0000 </r>
       <r>   -0.3713    0.0000 </r>
       <r>   -0.3707    0.0000 </r>
       <r>   -0.2629    0.0000 </r>
       <r>   -0.2624    0.0000 </r>
       <r>   -0.2618    0.0000 </r>
       <r>   -0.2611    0.0000 </r>
       <r>   -0.0698    0.0000 </r>
       <r>   -0.0695    0.0000 </r>
       <r>   -0.0691    0.0000 </r>
       <r>   -0.0677    0.0000 </r>
       <r>    0.0010    0.0000 </r>
       <r>    0.0022    0.0000 </r>
       <r>    0.0550    0.0000 </r>
       <r>    0.0552    0.0000 </r>
       <r>    0.0564    0.0000 </r>
       <r>    0.0576    0.0000 </r>
       <r>    0.1715    0.0000 </r>
       <r>    0.1726    0.0000 </r>
       <r>    0.2225    0.0000 </r>
       <r>    0.2231    0.0000 </r>
       <r>    0.2276    0.0000 </r>
       <r>    0.2284    0.0000 </r>
       <r>    0.2287    0.0000 </r>
       <r>    0.2300    0.0000 </r>
       <r>    0.2984    0.0000 </r>
       <r>    0.2989    0.0000 </r>
      </set>
      <set comment="kpoint 6">
       <r>  -25.2703    1.0000 </r>
       <r>  -25.2689    1.0000 </r>
       <r>  -25.2688    1.0000 </r>
       <r>  -25.2687    1.0000 </r>
       <r>  -25.2687    1.0000 </r>
       <r>  -25.2678    1.0000 </r>
       <r>  -25.2677    1.0000 </r>
       <r>  -25.2677    1.0000 </r>
       <r>  -25.2677    1.0000 </r>
       <r>  -25.2676    1.0000 </r>
       <r>  -25.2675    1.0000 </r>
       <r>  -25.2661    1.0000 </r>
       <r>  -25.2661    1.0000 </r>
       <r>  -25.2661    1.0000 </r>
       <r>  -25.2660    1.0000 </r>
       <r>  -25.2657    1.0000 </r>
       <r>  -25.2657    1.0000 </r>
       <r>  -25.2656    1.0000 </r>
       <r>  -25.2654    1.0000 </r>
       <r>  -25.2649    1.0000 </r>
       <r>  -25.2647    1.0000 </r>
       <r>  -25.2642    1.0000 </r>
       <r>  -25.2640    1.0000 </r>
       <r>  -25.2632    1.0000 </r>
       <r>  -25.2632    1.0000 </r>
       <r>  -25.2619    1.0000 </r>
       <r>  -25.2617    1.0000 </r>
       <r>  -25.2590    1.0000 </r>
       <r>  -25.2589    1.0000 </r>
       <r>  -25.2546    1.0000 </r>
       <r>  -25.2546    1.0000 </r>
       <r>  -25.2546    1.0000 </r>
       <r>  -25.2545    1.0000 </r>
       <r>  -25.2519    1.0000 </r>
       <r>  -25.2519    1.0000 </r>
       <r>  -25.2518    1.0000 </r>
       <r>  -25.2518    1.0000 </r>
       <r>  -25.2506    1.0000 </r>
       <r>  -25.2506    1.0000 </r>
       <r>  -25.2505    1.0000 </r>
       <r>  -25.2504    1.0000 </r>
       <r>  -25.2503    1.0000 </r>
       <r>  -25.2503    1.0000 </r>
       <r>  -25.2502    1.0000 </r>
       <r>  -25.2501    1.0000 </r>
       <r>  -25.2478    1.0000 </r>
       <r>  -25.2477    1.0000 </r>
       <r>  -25.2475    1.0000 </r>
       <r>  -25.2475    1.0000 </r>
       <r>  -25.2462    1.0000 </r>
       <r>  -25.2327    1.0000 </r>
       <r>  -25.2322    1.0000 </r>
       <r>  -25.2321    1.0000 </r>
       <r>  -25.2320    1.0000 </r>
       <r>  -25.2319    1.0000 </r>
       <r>  -25.2307    1.0000 </r>
       <r>  -25.2307    1.0000 </r>
       <r>  -25.2307    1.0000 </r>
       <r>  -25.2307    1.0000 </r>
       <r>  -25.2306    1.0000 </r>
       <r>  -25.2305    1.0000 </r>
       <r>  -25.2304    1.0000 </r>
       <r>  -25.2304    1.0000 </r>
       <r>  -25.2296    1.0000 </r>
       <r>  -25.2295    1.0000 </r>
       <r>  -25.2295    1.0000 </r>
       <r>  -25.2294    1.0000 </r>
       <r>  -25.2283    1.0000 </r>
       <r>  -25.2283    1.0000 </r>
       <r>  -25.2282    1.0000 </r>
       <r>  -25.2281    1.0000 </r>
       <r>  -25.2273    1.0000 </r>
       <r>  -25.2272    1.0000 </r>
       <r>  -25.2258    1.0000 </r>
       <r>  -25.2257    1.0000 </r>
       <r>  -25.2257    1.0000 </r>
       <r>  -25.2256    1.0000 </r>
       <r>  -25.2255    1.0000 </r>
       <r>  -25.2254    1.0000 </r>
       <r>  -25.2245    1.0000 </r>
       <r>  -25.2244    1.0000 </r>
       <r>  -25.2244    1.0000 </r>
       <r>  -25.2243    1.0000 </r>
       <r>  -25.2243    1.0000 </r>
       <r>  -25.2242    1.0000 </r>
       <r>  -25.2242    1.0000 </r>
       <r>  -25.2242    1.0000 </r>
       <r>  -25.2242    1.0000 </r>
       <r>  -25.2241    1.0000 </r>
       <r>  -25.2240    1.0000 </r>
       <r>  -25.2239    1.0000 </r>
       <r>  -25.2239    1.0000 </r>
       <r>  -25.2238    1.0000 </r>
       <r>  -25.2237    1.0000 </r>
       <r>  -25.2237    1.0000 </r>
       <r>  -25.2235    1.0000 </r>
       <r>  -25.2234    1.0000 </r>
       <r>  -25.2232    1.0000 </r>
       <r>  -25.2231    1.0000 </r>
       <r>  -25.2229    1.0000 </r>
       <r>  -25.2128    1.0000 </r>
       <r>  -25.2126    1.0000 </r>
       <r>  -25.2109    1.0000 </r>
       <r>  -25.2107    1.0000 </r>
       <r>  -25.2077    1.0000 </r>
       <r>  -25.2077    1.0000 </r>
       <r>  -25.2076    1.0000 </r>
       <r>  -25.2075    1.0000 </r>
       <r>  -25.2064    1.0000 </r>
       <r>  -25.2063    1.0000 </r>
       <r>  -25.2046    1.0000 </r>
       <r>  -25.2045    1.0000 </r>
       <r>  -25.2044    1.0000 </r>
       <r>  -25.2042    1.0000 </r>
       <r>  -25.2030    1.0000 </r>
       <r>  -25.2030    1.0000 </r>
       <r>  -25.2029    1.0000 </r>
       <r>  -25.2028    1.0000 </r>
       <r>  -25.2026    1.0000 </r>
       <r>  -25.2025    1.0000 </r>
       <r>  -25.2024    1.0000 </r>
       <r>  -25.2024    1.0000 </r>
       <r>  -25.2022    1.0000 </r>
       <r>  -25.2018    1.0000 </r>
       <r>  -25.2016    1.0000 </r>
       <r>  -14.5221    1.0000 </r>
       <r>  -14.5211    1.0000 </r>
       <r>  -14.3475    1.0000 </r>
       <r>  -14.3463    1.0000 </r>
       <r>  -14.0182    1.0000 </r>
       <r>  -14.0164    1.0000 </r>
       <r>  -14.0163    1.0000 </r>
       <r>  -14.0161    1.0000 </r>
       <r>  -13.8666    1.0000 </r>
       <r>  -13.8659    1.0000 </r>
       <r>  -13.5893    1.0000 </r>
       <r>  -13.5877    1.0000 </r>
       <r>  -13.5876    1.0000 </r>
       <r>  -13.5875    1.0000 </r>
       <r>  -13.2427    1.0000 </r>
       <r>  -13.2417    1.0000 </r>
       <r>  -13.2415    1.0000 </r>
       <r>  -13.2412    1.0000 </r>
       <r>  -13.2209    1.0000 </r>
       <r>  -13.2201    1.0000 </r>
       <r>  -13.2198    1.0000 </r>
       <r>  -13.2196    1.0000 </r>
       <r>  -13.2063    1.0000 </r>
       <r>  -12.9632    1.0000 </r>
       <r>  -12.9631    1.0000 </r>
       <r>  -11.1277    1.0000 </r>
       <r>  -11.1272    1.0000 </r>
       <r>  -10.9884    1.0000 </r>
       <r>  -10.9479    1.0000 </r>
       <r>  -10.9469    1.0000 </r>
       <r>  -10.9468    1.0000 </r>
       <r>  -10.9463    1.0000 </r>
       <r>  -10.8798    1.0000 </r>
       <r>  -10.8793    1.0000 </r>
       <r>  -10.8793    1.0000 </r>
       <r>  -10.8791    1.0000 </r>
       <r>  -10.5769    1.0000 </r>
       <r>  -10.5764    1.0000 </r>
       <r>  -10.5764    1.0000 </r>
       <r>  -10.5755    1.0000 </r>
       <r>  -10.3377    1.0000 </r>
       <r>  -10.3370    1.0000 </r>
       <r>  -10.2120    1.0000 </r>
       <r>  -10.2118    1.0000 </r>
       <r>  -10.2118    1.0000 </r>
       <r>  -10.2101    1.0000 </r>
       <r>  -10.0194    1.0000 </r>
       <r>  -10.0182    1.0000 </r>
       <r>   -9.9571    1.0000 </r>
       <r>   -9.9557    1.0000 </r>
       <r>   -5.9964    1.0000 </r>
       <r>   -5.9958    1.0000 </r>
       <r>   -5.7677    1.0000 </r>
       <r>   -5.7595    1.0000 </r>
       <r>   -5.7589    1.0000 </r>
       <r>   -5.7587    1.0000 </r>
       <r>   -5.7583    1.0000 </r>
       <r>   -5.6816    1.0000 </r>
       <r>   -5.6809    1.0000 </r>
       <r>   -5.6805    1.0000 </r>
       <r>   -5.6805    1.0000 </r>
       <r>   -5.6358    1.0000 </r>
       <r>   -5.6354    1.0000 </r>
       <r>   -5.6352    1.0000 </r>
       <r>   -5.6350    1.0000 </r>
       <r>   -5.5379    1.0000 </r>
       <r>   -5.5376    1.0000 </r>
       <r>   -5.2379    1.0000 </r>
       <r>   -5.2374    1.0000 </r>
       <r>   -5.2369    1.0000 </r>
       <r>   -5.2365    1.0000 </r>
       <r>   -5.1329    1.0000 </r>
       <r>   -5.1319    1.0000 </r>
       <r>   -5.1319    1.0000 </r>
       <r>   -5.1315    1.0000 </r>
       <r>   -4.9027    1.0000 </r>
       <r>   -4.9025    1.0000 </r>
       <r>   -4.6310    1.0000 </r>
       <r>   -4.6303    1.0000 </r>
       <r>   -4.6297    1.0000 </r>
       <r>   -4.6296    1.0000 </r>
       <r>   -4.5854    1.0000 </r>
       <r>   -4.5846    1.0000 </r>
       <r>   -4.5843    1.0000 </r>
       <r>   -4.5841    1.0000 </r>
       <r>   -4.5333    1.0000 </r>
       <r>   -4.5331    1.0000 </r>
       <r>   -4.3953    1.0000 </r>
       <r>   -4.3947    1.0000 </r>
       <r>   -4.3192    1.0000 </r>
       <r>   -4.2888    1.0000 </r>
       <r>   -4.2061    1.0000 </r>
       <r>   -4.2056    1.0000 </r>
       <r>   -4.2048    1.0000 </r>
       <r>   -4.2047    1.0000 </r>
       <r>   -4.2046    1.0000 </r>
       <r>   -4.2046    1.0000 </r>
       <r>   -4.2043    1.0000 </r>
       <r>   -4.2033    1.0000 </r>
       <r>   -4.0174    1.0000 </r>
       <r>   -4.0172    1.0000 </r>
       <r>   -4.0169    1.0000 </r>
       <r>   -4.0162    1.0000 </r>
       <r>   -3.9161    1.0000 </r>
       <r>   -3.9149    1.0000 </r>
       <r>   -3.7799    1.0000 </r>
       <r>   -3.7796    1.0000 </r>
       <r>   -3.7486    1.0000 </r>
       <r>   -3.7486    1.0000 </r>
       <r>   -3.7485    1.0000 </r>
       <r>   -3.7473    1.0000 </r>
       <r>   -3.6384    1.0000 </r>
       <r>   -3.6375    1.0000 </r>
       <r>   -3.5903    1.0000 </r>
       <r>   -3.5899    1.0000 </r>
       <r>   -3.4137    1.0000 </r>
       <r>   -3.4135    1.0000 </r>
       <r>   -3.4134    1.0000 </r>
       <r>   -3.4120    1.0000 </r>
       <r>   -3.4039    1.0000 </r>
       <r>   -3.4022    1.0000 </r>
       <r>   -3.3442    1.0000 </r>
       <r>   -3.3432    1.0000 </r>
       <r>   -3.0672    1.0000 </r>
       <r>   -3.0661    1.0000 </r>
       <r>   -1.7139    0.0000 </r>
       <r>   -1.7135    0.0000 </r>
       <r>   -1.3198    0.0000 </r>
       <r>   -1.2407    0.0000 </r>
       <r>   -1.2403    0.0000 </r>
       <r>   -1.2401    0.0000 </r>
       <r>   -1.2394    0.0000 </r>
       <r>   -1.2379    0.0000 </r>
       <r>   -1.2370    0.0000 </r>
       <r>   -1.2289    0.0000 </r>
       <r>   -1.2287    0.0000 </r>
       <r>   -1.2107    0.0000 </r>
       <r>   -1.2106    0.0000 </r>
       <r>   -1.2101    0.0000 </r>
       <r>   -1.2094    0.0000 </r>
       <r>   -0.9432    0.0000 </r>
       <r>   -0.9430    0.0000 </r>
       <r>   -0.9426    0.0000 </r>
       <r>   -0.9419    0.0000 </r>
       <r>   -0.9087    0.0000 </r>
       <r>   -0.9080    0.0000 </r>
       <r>   -0.8602    0.0000 </r>
       <r>   -0.8602    0.0000 </r>
       <r>   -0.8592    0.0000 </r>
       <r>   -0.8583    0.0000 </r>
       <r>   -0.5344    0.0000 </r>
       <r>   -0.5340    0.0000 </r>
       <r>   -0.4710    0.0000 </r>
       <r>   -0.4221    0.0000 </r>
       <r>   -0.4215    0.0000 </r>
       <r>   -0.4212    0.0000 </r>
       <r>   -0.4202    0.0000 </r>
       <r>   -0.3710    0.0000 </r>
       <r>   -0.3704    0.0000 </r>
       <r>   -0.2629    0.0000 </r>
       <r>   -0.2624    0.0000 </r>
       <r>   -0.2622    0.0000 </r>
       <r>   -0.2609    0.0000 </r>
       <r>   -0.0698    0.0000 </r>
       <r>   -0.0696    0.0000 </r>
       <r>   -0.0693    0.0000 </r>
       <r>   -0.0680    0.0000 </r>
       <r>    0.0009    0.0000 </r>
       <r>    0.0015    0.0000 </r>
       <r>    0.0549    0.0000 </r>
       <r>    0.0551    0.0000 </r>
       <r>    0.0556    0.0000 </r>
       <r>    0.0570    0.0000 </r>
       <r>    0.1717    0.0000 </r>
       <r>    0.1729    0.0000 </r>
       <r>    0.2223    0.0000 </r>
       <r>    0.2230    0.0000 </r>
       <r>    0.2280    0.0000 </r>
       <r>    0.2287    0.0000 </r>
       <r>    0.2295    0.0000 </r>
       <r>    0.2297    0.0000 </r>
       <r>    0.2984    0.0000 </r>
       <r>    0.2986    0.0000 </r>
      </set>
      <set comment="kpoint 7">
       <r>  -25.2703    1.0000 </r>
       <r>  -25.2689    1.0000 </r>
       <r>  -25.2688    1.0000 </r>
       <r>  -25.2687    1.0000 </r>
       <r>  -25.2687    1.0000 </r>
       <r>  -25.2678    1.0000 </r>
       <r>  -25.2677    1.0000 </r>
       <r>  -25.2677    1.0000 </r>
       <r>  -25.2676    1.0000 </r>
       <r>  -25.2676    1.0000 </r>
       <r>  -25.2675    1.0000 </r>
       <r>  -25.2661    1.0000 </r>
       <r>  -25.2661    1.0000 </r>
       <r>  -25.2661    1.0000 </r>
       <r>  -25.2661    1.0000 </r>
       <r>  -25.2657    1.0000 </r>
       <r>  -25.2657    1.0000 </r>
       <r>  -25.2655    1.0000 </r>
       <r>  -25.2654    1.0000 </r>
       <r>  -25.2649    1.0000 </r>
       <r>  -25.2647    1.0000 </r>
       <r>  -25.2642    1.0000 </r>
       <r>  -25.2639    1.0000 </r>
       <r>  -25.2632    1.0000 </r>
       <r>  -25.2632    1.0000 </r>
       <r>  -25.2620    1.0000 </r>
       <r>  -25.2617    1.0000 </r>
       <r>  -25.2590    1.0000 </r>
       <r>  -25.2589    1.0000 </r>
       <r>  -25.2546    1.0000 </r>
       <r>  -25.2546    1.0000 </r>
       <r>  -25.2545    1.0000 </r>
       <r>  -25.2545    1.0000 </r>
       <r>  -25.2520    1.0000 </r>
       <r>  -25.2519    1.0000 </r>
       <r>  -25.2518    1.0000 </r>
       <r>  -25.2518    1.0000 </r>
       <r>  -25.2507    1.0000 </r>
       <r>  -25.2506    1.0000 </r>
       <r>  -25.2505    1.0000 </r>
       <r>  -25.2504    1.0000 </r>
       <r>  -25.2503    1.0000 </r>
       <r>  -25.2503    1.0000 </r>
       <r>  -25.2501    1.0000 </r>
       <r>  -25.2501    1.0000 </r>
       <r>  -25.2477    1.0000 </r>
       <r>  -25.2477    1.0000 </r>
       <r>  -25.2475    1.0000 </r>
       <r>  -25.2475    1.0000 </r>
       <r>  -25.2462    1.0000 </r>
       <r>  -25.2327    1.0000 </r>
       <r>  -25.2321    1.0000 </r>
       <r>  -25.2321    1.0000 </r>
       <r>  -25.2320    1.0000 </r>
       <r>  -25.2319    1.0000 </r>
       <r>  -25.2308    1.0000 </r>
       <r>  -25.2308    1.0000 </r>
       <r>  -25.2307    1.0000 </r>
       <r>  -25.2307    1.0000 </r>
       <r>  -25.2306    1.0000 </r>
       <r>  -25.2305    1.0000 </r>
       <r>  -25.2304    1.0000 </r>
       <r>  -25.2304    1.0000 </r>
       <r>  -25.2296    1.0000 </r>
       <r>  -25.2295    1.0000 </r>
       <r>  -25.2294    1.0000 </r>
       <r>  -25.2294    1.0000 </r>
       <r>  -25.2283    1.0000 </r>
       <r>  -25.2283    1.0000 </r>
       <r>  -25.2282    1.0000 </r>
       <r>  -25.2282    1.0000 </r>
       <r>  -25.2273    1.0000 </r>
       <r>  -25.2272    1.0000 </r>
       <r>  -25.2259    1.0000 </r>
       <r>  -25.2257    1.0000 </r>
       <r>  -25.2257    1.0000 </r>
       <r>  -25.2256    1.0000 </r>
       <r>  -25.2255    1.0000 </r>
       <r>  -25.2253    1.0000 </r>
       <r>  -25.2245    1.0000 </r>
       <r>  -25.2244    1.0000 </r>
       <r>  -25.2244    1.0000 </r>
       <r>  -25.2243    1.0000 </r>
       <r>  -25.2243    1.0000 </r>
       <r>  -25.2242    1.0000 </r>
       <r>  -25.2242    1.0000 </r>
       <r>  -25.2241    1.0000 </r>
       <r>  -25.2241    1.0000 </r>
       <r>  -25.2241    1.0000 </r>
       <r>  -25.2240    1.0000 </r>
       <r>  -25.2239    1.0000 </r>
       <r>  -25.2239    1.0000 </r>
       <r>  -25.2238    1.0000 </r>
       <r>  -25.2237    1.0000 </r>
       <r>  -25.2237    1.0000 </r>
       <r>  -25.2235    1.0000 </r>
       <r>  -25.2234    1.0000 </r>
       <r>  -25.2232    1.0000 </r>
       <r>  -25.2231    1.0000 </r>
       <r>  -25.2229    1.0000 </r>
       <r>  -25.2129    1.0000 </r>
       <r>  -25.2126    1.0000 </r>
       <r>  -25.2109    1.0000 </r>
       <r>  -25.2107    1.0000 </r>
       <r>  -25.2078    1.0000 </r>
       <r>  -25.2077    1.0000 </r>
       <r>  -25.2076    1.0000 </r>
       <r>  -25.2074    1.0000 </r>
       <r>  -25.2064    1.0000 </r>
       <r>  -25.2063    1.0000 </r>
       <r>  -25.2046    1.0000 </r>
       <r>  -25.2046    1.0000 </r>
       <r>  -25.2043    1.0000 </r>
       <r>  -25.2042    1.0000 </r>
       <r>  -25.2031    1.0000 </r>
       <r>  -25.2030    1.0000 </r>
       <r>  -25.2029    1.0000 </r>
       <r>  -25.2027    1.0000 </r>
       <r>  -25.2026    1.0000 </r>
       <r>  -25.2025    1.0000 </r>
       <r>  -25.2025    1.0000 </r>
       <r>  -25.2024    1.0000 </r>
       <r>  -25.2022    1.0000 </r>
       <r>  -25.2018    1.0000 </r>
       <r>  -25.2016    1.0000 </r>
       <r>  -14.5221    1.0000 </r>
       <r>  -14.5211    1.0000 </r>
       <r>  -14.3475    1.0000 </r>
       <r>  -14.3464    1.0000 </r>
       <r>  -14.0182    1.0000 </r>
       <r>  -14.0164    1.0000 </r>
       <r>  -14.0163    1.0000 </r>
       <r>  -14.0161    1.0000 </r>
       <r>  -13.8665    1.0000 </r>
       <r>  -13.8658    1.0000 </r>
       <r>  -13.5895    1.0000 </r>
       <r>  -13.5877    1.0000 </r>
       <r>  -13.5877    1.0000 </r>
       <r>  -13.5875    1.0000 </r>
       <r>  -13.2422    1.0000 </r>
       <r>  -13.2418    1.0000 </r>
       <r>  -13.2415    1.0000 </r>
       <r>  -13.2412    1.0000 </r>
       <r>  -13.2213    1.0000 </r>
       <r>  -13.2200    1.0000 </r>
       <r>  -13.2198    1.0000 </r>
       <r>  -13.2196    1.0000 </r>
       <r>  -13.2061    1.0000 </r>
       <r>  -12.9635    1.0000 </r>
       <r>  -12.9630    1.0000 </r>
       <r>  -11.1274    1.0000 </r>
       <r>  -11.1272    1.0000 </r>
       <r>  -10.9888    1.0000 </r>
       <r>  -10.9473    1.0000 </r>
       <r>  -10.9469    1.0000 </r>
       <r>  -10.9468    1.0000 </r>
       <r>  -10.9463    1.0000 </r>
       <r>  -10.8805    1.0000 </r>
       <r>  -10.8794    1.0000 </r>
       <r>  -10.8792    1.0000 </r>
       <r>  -10.8792    1.0000 </r>
       <r>  -10.5765    1.0000 </r>
       <r>  -10.5765    1.0000 </r>
       <r>  -10.5765    1.0000 </r>
       <r>  -10.5751    1.0000 </r>
       <r>  -10.3378    1.0000 </r>
       <r>  -10.3372    1.0000 </r>
       <r>  -10.2119    1.0000 </r>
       <r>  -10.2119    1.0000 </r>
       <r>  -10.2118    1.0000 </r>
       <r>  -10.2102    1.0000 </r>
       <r>  -10.0194    1.0000 </r>
       <r>  -10.0181    1.0000 </r>
       <r>   -9.9572    1.0000 </r>
       <r>   -9.9557    1.0000 </r>
       <r>   -5.9964    1.0000 </r>
       <r>   -5.9960    1.0000 </r>
       <r>   -5.7675    1.0000 </r>
       <r>   -5.7594    1.0000 </r>
       <r>   -5.7589    1.0000 </r>
       <r>   -5.7588    1.0000 </r>
       <r>   -5.7587    1.0000 </r>
       <r>   -5.6814    1.0000 </r>
       <r>   -5.6808    1.0000 </r>
       <r>   -5.6806    1.0000 </r>
       <r>   -5.6803    1.0000 </r>
       <r>   -5.6358    1.0000 </r>
       <r>   -5.6355    1.0000 </r>
       <r>   -5.6354    1.0000 </r>
       <r>   -5.6347    1.0000 </r>
       <r>   -5.5380    1.0000 </r>
       <r>   -5.5377    1.0000 </r>
       <r>   -5.2377    1.0000 </r>
       <r>   -5.2375    1.0000 </r>
       <r>   -5.2371    1.0000 </r>
       <r>   -5.2365    1.0000 </r>
       <r>   -5.1324    1.0000 </r>
       <r>   -5.1321    1.0000 </r>
       <r>   -5.1319    1.0000 </r>
       <r>   -5.1317    1.0000 </r>
       <r>   -4.9030    1.0000 </r>
       <r>   -4.9023    1.0000 </r>
       <r>   -4.6313    1.0000 </r>
       <r>   -4.6302    1.0000 </r>
       <r>   -4.6298    1.0000 </r>
       <r>   -4.6296    1.0000 </r>
       <r>   -4.5853    1.0000 </r>
       <r>   -4.5848    1.0000 </r>
       <r>   -4.5843    1.0000 </r>
       <r>   -4.5840    1.0000 </r>
       <r>   -4.5332    1.0000 </r>
       <r>   -4.5326    1.0000 </r>
       <r>   -4.3951    1.0000 </r>
       <r>   -4.3947    1.0000 </r>
       <r>   -4.3195    1.0000 </r>
       <r>   -4.2886    1.0000 </r>
       <r>   -4.2062    1.0000 </r>
       <r>   -4.2053    1.0000 </r>
       <r>   -4.2048    1.0000 </r>
       <r>   -4.2047    1.0000 </r>
       <r>   -4.2046    1.0000 </r>
       <r>   -4.2044    1.0000 </r>
       <r>   -4.2040    1.0000 </r>
       <r>   -4.2032    1.0000 </r>
       <r>   -4.0174    1.0000 </r>
       <r>   -4.0173    1.0000 </r>
       <r>   -4.0169    1.0000 </r>
       <r>   -4.0165    1.0000 </r>
       <r>   -3.9157    1.0000 </r>
       <r>   -3.9149    1.0000 </r>
       <r>   -3.7805    1.0000 </r>
       <r>   -3.7796    1.0000 </r>
       <r>   -3.7486    1.0000 </r>
       <r>   -3.7486    1.0000 </r>
       <r>   -3.7482    1.0000 </r>
       <r>   -3.7476    1.0000 </r>
       <r>   -3.6385    1.0000 </r>
       <r>   -3.6376    1.0000 </r>
       <r>   -3.5906    1.0000 </r>
       <r>   -3.5901    1.0000 </r>
       <r>   -3.4136    1.0000 </r>
       <r>   -3.4135    1.0000 </r>
       <r>   -3.4134    1.0000 </r>
       <r>   -3.4118    1.0000 </r>
       <r>   -3.4039    1.0000 </r>
       <r>   -3.4021    1.0000 </r>
       <r>   -3.3442    1.0000 </r>
       <r>   -3.3435    1.0000 </r>
       <r>   -3.0665    1.0000 </r>
       <r>   -3.0661    1.0000 </r>
       <r>   -1.7138    0.0000 </r>
       <r>   -1.7132    0.0000 </r>
       <r>   -1.3197    0.0000 </r>
       <r>   -1.2406    0.0000 </r>
       <r>   -1.2403    0.0000 </r>
       <r>   -1.2400    0.0000 </r>
       <r>   -1.2396    0.0000 </r>
       <r>   -1.2380    0.0000 </r>
       <r>   -1.2369    0.0000 </r>
       <r>   -1.2289    0.0000 </r>
       <r>   -1.2287    0.0000 </r>
       <r>   -1.2109    0.0000 </r>
       <r>   -1.2108    0.0000 </r>
       <r>   -1.2100    0.0000 </r>
       <r>   -1.2095    0.0000 </r>
       <r>   -0.9434    0.0000 </r>
       <r>   -0.9432    0.0000 </r>
       <r>   -0.9427    0.0000 </r>
       <r>   -0.9423    0.0000 </r>
       <r>   -0.9087    0.0000 </r>
       <r>   -0.9083    0.0000 </r>
       <r>   -0.8603    0.0000 </r>
       <r>   -0.8602    0.0000 </r>
       <r>   -0.8593    0.0000 </r>
       <r>   -0.8575    0.0000 </r>
       <r>   -0.5343    0.0000 </r>
       <r>   -0.5338    0.0000 </r>
       <r>   -0.4707    0.0000 </r>
       <r>   -0.4219    0.0000 </r>
       <r>   -0.4215    0.0000 </r>
       <r>   -0.4211    0.0000 </r>
       <r>   -0.4200    0.0000 </r>
       <r>   -0.3710    0.0000 </r>
       <r>   -0.3695    0.0000 </r>
       <r>   -0.2628    0.0000 </r>
       <r>   -0.2623    0.0000 </r>
       <r>   -0.2619    0.0000 </r>
       <r>   -0.2614    0.0000 </r>
       <r>   -0.0700    0.0000 </r>
       <r>   -0.0694    0.0000 </r>
       <r>   -0.0693    0.0000 </r>
       <r>   -0.0686    0.0000 </r>
       <r>    0.0005    0.0000 </r>
       <r>    0.0011    0.0000 </r>
       <r>    0.0548    0.0000 </r>
       <r>    0.0550    0.0000 </r>
       <r>    0.0551    0.0000 </r>
       <r>    0.0562    0.0000 </r>
       <r>    0.1719    0.0000 </r>
       <r>    0.1733    0.0000 </r>
       <r>    0.2224    0.0000 </r>
       <r>    0.2226    0.0000 </r>
       <r>    0.2284    0.0000 </r>
       <r>    0.2290    0.0000 </r>
       <r>    0.2295    0.0000 </r>
       <r>    0.2303    0.0000 </r>
       <r>    0.2981    0.0000 </r>
       <r>    0.2990    0.0000 </r>
      </set>
      <set comment="kpoint 8">
       <r>  -25.2699    1.0000 </r>
       <r>  -25.2699    1.0000 </r>
       <r>  -25.2689    1.0000 </r>
       <r>  -25.2684    1.0000 </r>
       <r>  -25.2682    1.0000 </r>
       <r>  -25.2680    1.0000 </r>
       <r>  -25.2680    1.0000 </r>
       <r>  -25.2672    1.0000 </r>
       <r>  -25.2671    1.0000 </r>
       <r>  -25.2671    1.0000 </r>
       <r>  -25.2670    1.0000 </r>
       <r>  -25.2669    1.0000 </r>
       <r>  -25.2668    1.0000 </r>
       <r>  -25.2668    1.0000 </r>
       <r>  -25.2667    1.0000 </r>
       <r>  -25.2657    1.0000 </r>
       <r>  -25.2654    1.0000 </r>
       <r>  -25.2653    1.0000 </r>
       <r>  -25.2649    1.0000 </r>
       <r>  -25.2644    1.0000 </r>
       <r>  -25.2644    1.0000 </r>
       <r>  -25.2643    1.0000 </r>
       <r>  -25.2642    1.0000 </r>
       <r>  -25.2639    1.0000 </r>
       <r>  -25.2628    1.0000 </r>
       <r>  -25.2623    1.0000 </r>
       <r>  -25.2607    1.0000 </r>
       <r>  -25.2606    1.0000 </r>
       <r>  -25.2569    1.0000 </r>
       <r>  -25.2568    1.0000 </r>
       <r>  -25.2551    1.0000 </r>
       <r>  -25.2534    1.0000 </r>
       <r>  -25.2532    1.0000 </r>
       <r>  -25.2523    1.0000 </r>
       <r>  -25.2522    1.0000 </r>
       <r>  -25.2521    1.0000 </r>
       <r>  -25.2513    1.0000 </r>
       <r>  -25.2512    1.0000 </r>
       <r>  -25.2511    1.0000 </r>
       <r>  -25.2508    1.0000 </r>
       <r>  -25.2508    1.0000 </r>
       <r>  -25.2502    1.0000 </r>
       <r>  -25.2501    1.0000 </r>
       <r>  -25.2492    1.0000 </r>
       <r>  -25.2490    1.0000 </r>
       <r>  -25.2488    1.0000 </r>
       <r>  -25.2485    1.0000 </r>
       <r>  -25.2473    1.0000 </r>
       <r>  -25.2466    1.0000 </r>
       <r>  -25.2466    1.0000 </r>
       <r>  -25.2326    1.0000 </r>
       <r>  -25.2325    1.0000 </r>
       <r>  -25.2322    1.0000 </r>
       <r>  -25.2316    1.0000 </r>
       <r>  -25.2314    1.0000 </r>
       <r>  -25.2313    1.0000 </r>
       <r>  -25.2312    1.0000 </r>
       <r>  -25.2308    1.0000 </r>
       <r>  -25.2307    1.0000 </r>
       <r>  -25.2303    1.0000 </r>
       <r>  -25.2303    1.0000 </r>
       <r>  -25.2302    1.0000 </r>
       <r>  -25.2300    1.0000 </r>
       <r>  -25.2300    1.0000 </r>
       <r>  -25.2295    1.0000 </r>
       <r>  -25.2294    1.0000 </r>
       <r>  -25.2290    1.0000 </r>
       <r>  -25.2289    1.0000 </r>
       <r>  -25.2287    1.0000 </r>
       <r>  -25.2280    1.0000 </r>
       <r>  -25.2277    1.0000 </r>
       <r>  -25.2270    1.0000 </r>
       <r>  -25.2269    1.0000 </r>
       <r>  -25.2264    1.0000 </r>
       <r>  -25.2264    1.0000 </r>
       <r>  -25.2259    1.0000 </r>
       <r>  -25.2250    1.0000 </r>
       <r>  -25.2249    1.0000 </r>
       <r>  -25.2249    1.0000 </r>
       <r>  -25.2248    1.0000 </r>
       <r>  -25.2248    1.0000 </r>
       <r>  -25.2247    1.0000 </r>
       <r>  -25.2244    1.0000 </r>
       <r>  -25.2243    1.0000 </r>
       <r>  -25.2243    1.0000 </r>
       <r>  -25.2242    1.0000 </r>
       <r>  -25.2242    1.0000 </r>
       <r>  -25.2240    1.0000 </r>
       <r>  -25.2240    1.0000 </r>
       <r>  -25.2239    1.0000 </r>
       <r>  -25.2239    1.0000 </r>
       <r>  -25.2239    1.0000 </r>
       <r>  -25.2238    1.0000 </r>
       <r>  -25.2237    1.0000 </r>
       <r>  -25.2236    1.0000 </r>
       <r>  -25.2235    1.0000 </r>
       <r>  -25.2234    1.0000 </r>
       <r>  -25.2232    1.0000 </r>
       <r>  -25.2230    1.0000 </r>
       <r>  -25.2230    1.0000 </r>
       <r>  -25.2130    1.0000 </r>
       <r>  -25.2121    1.0000 </r>
       <r>  -25.2118    1.0000 </r>
       <r>  -25.2094    1.0000 </r>
       <r>  -25.2092    1.0000 </r>
       <r>  -25.2078    1.0000 </r>
       <r>  -25.2073    1.0000 </r>
       <r>  -25.2070    1.0000 </r>
       <r>  -25.2060    1.0000 </r>
       <r>  -25.2059    1.0000 </r>
       <r>  -25.2055    1.0000 </r>
       <r>  -25.2053    1.0000 </r>
       <r>  -25.2036    1.0000 </r>
       <r>  -25.2036    1.0000 </r>
       <r>  -25.2034    1.0000 </r>
       <r>  -25.2031    1.0000 </r>
       <r>  -25.2030    1.0000 </r>
       <r>  -25.2028    1.0000 </r>
       <r>  -25.2027    1.0000 </r>
       <r>  -25.2025    1.0000 </r>
       <r>  -25.2024    1.0000 </r>
       <r>  -25.2023    1.0000 </r>
       <r>  -25.2022    1.0000 </r>
       <r>  -25.2018    1.0000 </r>
       <r>  -25.2016    1.0000 </r>
       <r>  -14.5438    1.0000 </r>
       <r>  -14.4559    1.0000 </r>
       <r>  -14.4549    1.0000 </r>
       <r>  -14.1994    1.0000 </r>
       <r>  -14.1985    1.0000 </r>
       <r>  -14.0361    1.0000 </r>
       <r>  -13.9600    1.0000 </r>
       <r>  -13.9591    1.0000 </r>
       <r>  -13.8087    1.0000 </r>
       <r>  -13.8080    1.0000 </r>
       <r>  -13.7410    1.0000 </r>
       <r>  -13.7401    1.0000 </r>
       <r>  -13.4178    1.0000 </r>
       <r>  -13.4170    1.0000 </r>
       <r>  -13.3791    1.0000 </r>
       <r>  -13.3788    1.0000 </r>
       <r>  -13.2455    1.0000 </r>
       <r>  -13.2327    1.0000 </r>
       <r>  -13.2319    1.0000 </r>
       <r>  -13.2107    1.0000 </r>
       <r>  -13.2099    1.0000 </r>
       <r>  -13.1586    1.0000 </r>
       <r>  -13.0812    1.0000 </r>
       <r>  -13.0808    1.0000 </r>
       <r>  -12.9189    1.0000 </r>
       <r>  -11.1674    1.0000 </r>
       <r>  -11.0222    1.0000 </r>
       <r>  -11.0217    1.0000 </r>
       <r>  -11.0115    1.0000 </r>
       <r>  -10.9770    1.0000 </r>
       <r>  -10.9765    1.0000 </r>
       <r>  -10.9097    1.0000 </r>
       <r>  -10.9093    1.0000 </r>
       <r>  -10.8675    1.0000 </r>
       <r>  -10.7836    1.0000 </r>
       <r>  -10.7830    1.0000 </r>
       <r>  -10.7253    1.0000 </r>
       <r>  -10.7247    1.0000 </r>
       <r>  -10.4449    1.0000 </r>
       <r>  -10.4442    1.0000 </r>
       <r>  -10.3764    1.0000 </r>
       <r>  -10.3758    1.0000 </r>
       <r>  -10.2593    1.0000 </r>
       <r>  -10.2583    1.0000 </r>
       <r>  -10.1955    1.0000 </r>
       <r>  -10.0941    1.0000 </r>
       <r>  -10.0931    1.0000 </r>
       <r>   -9.9774    1.0000 </r>
       <r>   -9.9760    1.0000 </r>
       <r>   -9.9505    1.0000 </r>
       <r>   -6.0486    1.0000 </r>
       <r>   -5.8521    1.0000 </r>
       <r>   -5.8512    1.0000 </r>
       <r>   -5.7691    1.0000 </r>
       <r>   -5.7672    1.0000 </r>
       <r>   -5.7669    1.0000 </r>
       <r>   -5.7320    1.0000 </r>
       <r>   -5.7312    1.0000 </r>
       <r>   -5.7208    1.0000 </r>
       <r>   -5.7204    1.0000 </r>
       <r>   -5.6454    1.0000 </r>
       <r>   -5.6232    1.0000 </r>
       <r>   -5.6229    1.0000 </r>
       <r>   -5.6166    1.0000 </r>
       <r>   -5.6164    1.0000 </r>
       <r>   -5.4792    1.0000 </r>
       <r>   -5.4790    1.0000 </r>
       <r>   -5.4006    1.0000 </r>
       <r>   -5.4005    1.0000 </r>
       <r>   -5.2318    1.0000 </r>
       <r>   -5.1482    1.0000 </r>
       <r>   -5.0681    1.0000 </r>
       <r>   -5.0677    1.0000 </r>
       <r>   -4.9514    1.0000 </r>
       <r>   -4.9510    1.0000 </r>
       <r>   -4.9145    1.0000 </r>
       <r>   -4.9141    1.0000 </r>
       <r>   -4.9038    1.0000 </r>
       <r>   -4.9033    1.0000 </r>
       <r>   -4.7776    1.0000 </r>
       <r>   -4.6493    1.0000 </r>
       <r>   -4.6487    1.0000 </r>
       <r>   -4.5874    1.0000 </r>
       <r>   -4.5261    1.0000 </r>
       <r>   -4.4338    1.0000 </r>
       <r>   -4.4330    1.0000 </r>
       <r>   -4.3930    1.0000 </r>
       <r>   -4.3924    1.0000 </r>
       <r>   -4.3189    1.0000 </r>
       <r>   -4.3177    1.0000 </r>
       <r>   -4.2842    1.0000 </r>
       <r>   -4.2838    1.0000 </r>
       <r>   -4.1992    1.0000 </r>
       <r>   -4.1988    1.0000 </r>
       <r>   -4.1821    1.0000 </r>
       <r>   -4.1814    1.0000 </r>
       <r>   -4.1341    1.0000 </r>
       <r>   -4.1337    1.0000 </r>
       <r>   -4.1028    1.0000 </r>
       <r>   -4.1021    1.0000 </r>
       <r>   -3.9973    1.0000 </r>
       <r>   -3.9963    1.0000 </r>
       <r>   -3.9847    1.0000 </r>
       <r>   -3.9843    1.0000 </r>
       <r>   -3.9832    1.0000 </r>
       <r>   -3.9141    1.0000 </r>
       <r>   -3.9134    1.0000 </r>
       <r>   -3.8635    1.0000 </r>
       <r>   -3.8629    1.0000 </r>
       <r>   -3.6843    1.0000 </r>
       <r>   -3.6836    1.0000 </r>
       <r>   -3.6123    1.0000 </r>
       <r>   -3.5465    1.0000 </r>
       <r>   -3.5458    1.0000 </r>
       <r>   -3.5001    1.0000 </r>
       <r>   -3.4992    1.0000 </r>
       <r>   -3.4102    1.0000 </r>
       <r>   -3.3978    1.0000 </r>
       <r>   -3.3965    1.0000 </r>
       <r>   -3.3889    1.0000 </r>
       <r>   -3.3553    1.0000 </r>
       <r>   -3.3541    1.0000 </r>
       <r>   -3.2434    1.0000 </r>
       <r>   -3.2427    1.0000 </r>
       <r>   -3.0354    1.0000 </r>
       <r>   -1.5717    0.0000 </r>
       <r>   -1.5713    0.0000 </r>
       <r>   -1.5658    0.0000 </r>
       <r>   -1.5651    0.0000 </r>
       <r>   -1.2983    0.0000 </r>
       <r>   -1.2792    0.0000 </r>
       <r>   -1.2784    0.0000 </r>
       <r>   -1.2617    0.0000 </r>
       <r>   -1.1953    0.0000 </r>
       <r>   -1.1948    0.0000 </r>
       <r>   -1.1161    0.0000 </r>
       <r>   -1.1154    0.0000 </r>
       <r>   -1.0693    0.0000 </r>
       <r>   -1.0680    0.0000 </r>
       <r>   -1.0641    0.0000 </r>
       <r>   -1.0633    0.0000 </r>
       <r>   -1.0488    0.0000 </r>
       <r>   -1.0478    0.0000 </r>
       <r>   -0.9304    0.0000 </r>
       <r>   -0.9102    0.0000 </r>
       <r>   -0.9092    0.0000 </r>
       <r>   -0.8821    0.0000 </r>
       <r>   -0.8351    0.0000 </r>
       <r>   -0.8343    0.0000 </r>
       <r>   -0.8111    0.0000 </r>
       <r>   -0.5734    0.0000 </r>
       <r>   -0.4693    0.0000 </r>
       <r>   -0.4689    0.0000 </r>
       <r>   -0.4546    0.0000 </r>
       <r>   -0.4541    0.0000 </r>
       <r>   -0.4182    0.0000 </r>
       <r>   -0.3297    0.0000 </r>
       <r>   -0.3113    0.0000 </r>
       <r>   -0.3105    0.0000 </r>
       <r>   -0.2807    0.0000 </r>
       <r>   -0.2804    0.0000 </r>
       <r>   -0.2795    0.0000 </r>
       <r>   -0.2243    0.0000 </r>
       <r>   -0.2224    0.0000 </r>
       <r>   -0.1811    0.0000 </r>
       <r>   -0.1796    0.0000 </r>
       <r>   -0.0265    0.0000 </r>
       <r>   -0.0250    0.0000 </r>
       <r>   -0.0163    0.0000 </r>
       <r>    0.0849    0.0000 </r>
       <r>    0.0858    0.0000 </r>
       <r>    0.1229    0.0000 </r>
       <r>    0.1234    0.0000 </r>
       <r>    0.1799    0.0000 </r>
       <r>    0.1809    0.0000 </r>
       <r>    0.2091    0.0000 </r>
       <r>    0.2097    0.0000 </r>
       <r>    0.2645    0.0000 </r>
       <r>    0.2650    0.0000 </r>
       <r>    0.2666    0.0000 </r>
       <r>    0.2687    0.0000 </r>
       <r>    0.3158    0.0000 </r>
       <r>    0.3352    0.0000 </r>
      </set>
      <set comment="kpoint 9">
       <r>  -25.2699    1.0000 </r>
       <r>  -25.2699    1.0000 </r>
       <r>  -25.2689    1.0000 </r>
       <r>  -25.2684    1.0000 </r>
       <r>  -25.2683    1.0000 </r>
       <r>  -25.2680    1.0000 </r>
       <r>  -25.2680    1.0000 </r>
       <r>  -25.2672    1.0000 </r>
       <r>  -25.2672    1.0000 </r>
       <r>  -25.2670    1.0000 </r>
       <r>  -25.2669    1.0000 </r>
       <r>  -25.2669    1.0000 </r>
       <r>  -25.2668    1.0000 </r>
       <r>  -25.2668    1.0000 </r>
       <r>  -25.2667    1.0000 </r>
       <r>  -25.2657    1.0000 </r>
       <r>  -25.2654    1.0000 </r>
       <r>  -25.2654    1.0000 </r>
       <r>  -25.2649    1.0000 </r>
       <r>  -25.2644    1.0000 </r>
       <r>  -25.2644    1.0000 </r>
       <r>  -25.2643    1.0000 </r>
       <r>  -25.2642    1.0000 </r>
       <r>  -25.2639    1.0000 </r>
       <r>  -25.2628    1.0000 </r>
       <r>  -25.2623    1.0000 </r>
       <r>  -25.2607    1.0000 </r>
       <r>  -25.2607    1.0000 </r>
       <r>  -25.2569    1.0000 </r>
       <r>  -25.2568    1.0000 </r>
       <r>  -25.2551    1.0000 </r>
       <r>  -25.2533    1.0000 </r>
       <r>  -25.2533    1.0000 </r>
       <r>  -25.2523    1.0000 </r>
       <r>  -25.2523    1.0000 </r>
       <r>  -25.2521    1.0000 </r>
       <r>  -25.2513    1.0000 </r>
       <r>  -25.2512    1.0000 </r>
       <r>  -25.2510    1.0000 </r>
       <r>  -25.2508    1.0000 </r>
       <r>  -25.2508    1.0000 </r>
       <r>  -25.2502    1.0000 </r>
       <r>  -25.2502    1.0000 </r>
       <r>  -25.2491    1.0000 </r>
       <r>  -25.2490    1.0000 </r>
       <r>  -25.2487    1.0000 </r>
       <r>  -25.2486    1.0000 </r>
       <r>  -25.2473    1.0000 </r>
       <r>  -25.2466    1.0000 </r>
       <r>  -25.2466    1.0000 </r>
       <r>  -25.2326    1.0000 </r>
       <r>  -25.2325    1.0000 </r>
       <r>  -25.2322    1.0000 </r>
       <r>  -25.2315    1.0000 </r>
       <r>  -25.2314    1.0000 </r>
       <r>  -25.2313    1.0000 </r>
       <r>  -25.2313    1.0000 </r>
       <r>  -25.2307    1.0000 </r>
       <r>  -25.2307    1.0000 </r>
       <r>  -25.2303    1.0000 </r>
       <r>  -25.2302    1.0000 </r>
       <r>  -25.2302    1.0000 </r>
       <r>  -25.2301    1.0000 </r>
       <r>  -25.2300    1.0000 </r>
       <r>  -25.2295    1.0000 </r>
       <r>  -25.2294    1.0000 </r>
       <r>  -25.2290    1.0000 </r>
       <r>  -25.2289    1.0000 </r>
       <r>  -25.2288    1.0000 </r>
       <r>  -25.2280    1.0000 </r>
       <r>  -25.2277    1.0000 </r>
       <r>  -25.2269    1.0000 </r>
       <r>  -25.2269    1.0000 </r>
       <r>  -25.2264    1.0000 </r>
       <r>  -25.2264    1.0000 </r>
       <r>  -25.2258    1.0000 </r>
       <r>  -25.2250    1.0000 </r>
       <r>  -25.2250    1.0000 </r>
       <r>  -25.2248    1.0000 </r>
       <r>  -25.2248    1.0000 </r>
       <r>  -25.2248    1.0000 </r>
       <r>  -25.2247    1.0000 </r>
       <r>  -25.2244    1.0000 </r>
       <r>  -25.2243    1.0000 </r>
       <r>  -25.2242    1.0000 </r>
       <r>  -25.2242    1.0000 </r>
       <r>  -25.2241    1.0000 </r>
       <r>  -25.2240    1.0000 </r>
       <r>  -25.2240    1.0000 </r>
       <r>  -25.2240    1.0000 </r>
       <r>  -25.2239    1.0000 </r>
       <r>  -25.2239    1.0000 </r>
       <r>  -25.2239    1.0000 </r>
       <r>  -25.2237    1.0000 </r>
       <r>  -25.2237    1.0000 </r>
       <r>  -25.2235    1.0000 </r>
       <r>  -25.2235    1.0000 </r>
       <r>  -25.2231    1.0000 </r>
       <r>  -25.2231    1.0000 </r>
       <r>  -25.2229    1.0000 </r>
       <r>  -25.2130    1.0000 </r>
       <r>  -25.2120    1.0000 </r>
       <r>  -25.2119    1.0000 </r>
       <r>  -25.2093    1.0000 </r>
       <r>  -25.2093    1.0000 </r>
       <r>  -25.2078    1.0000 </r>
       <r>  -25.2072    1.0000 </r>
       <r>  -25.2070    1.0000 </r>
       <r>  -25.2060    1.0000 </r>
       <r>  -25.2060    1.0000 </r>
       <r>  -25.2054    1.0000 </r>
       <r>  -25.2053    1.0000 </r>
       <r>  -25.2037    1.0000 </r>
       <r>  -25.2036    1.0000 </r>
       <r>  -25.2033    1.0000 </r>
       <r>  -25.2032    1.0000 </r>
       <r>  -25.2030    1.0000 </r>
       <r>  -25.2028    1.0000 </r>
       <r>  -25.2026    1.0000 </r>
       <r>  -25.2025    1.0000 </r>
       <r>  -25.2025    1.0000 </r>
       <r>  -25.2023    1.0000 </r>
       <r>  -25.2022    1.0000 </r>
       <r>  -25.2018    1.0000 </r>
       <r>  -25.2016    1.0000 </r>
       <r>  -14.5438    1.0000 </r>
       <r>  -14.4560    1.0000 </r>
       <r>  -14.4548    1.0000 </r>
       <r>  -14.1997    1.0000 </r>
       <r>  -14.1984    1.0000 </r>
       <r>  -14.0360    1.0000 </r>
       <r>  -13.9599    1.0000 </r>
       <r>  -13.9590    1.0000 </r>
       <r>  -13.8092    1.0000 </r>
       <r>  -13.8079    1.0000 </r>
       <r>  -13.7410    1.0000 </r>
       <r>  -13.7399    1.0000 </r>
       <r>  -13.4179    1.0000 </r>
       <r>  -13.4169    1.0000 </r>
       <r>  -13.3799    1.0000 </r>
       <r>  -13.3787    1.0000 </r>
       <r>  -13.2453    1.0000 </r>
       <r>  -13.2324    1.0000 </r>
       <r>  -13.2318    1.0000 </r>
       <r>  -13.2103    1.0000 </r>
       <r>  -13.2098    1.0000 </r>
       <r>  -13.1590    1.0000 </r>
       <r>  -13.0815    1.0000 </r>
       <r>  -13.0806    1.0000 </r>
       <r>  -12.9190    1.0000 </r>
       <r>  -11.1672    1.0000 </r>
       <r>  -11.0221    1.0000 </r>
       <r>  -11.0217    1.0000 </r>
       <r>  -11.0108    1.0000 </r>
       <r>  -10.9775    1.0000 </r>
       <r>  -10.9768    1.0000 </r>
       <r>  -10.9103    1.0000 </r>
       <r>  -10.9096    1.0000 </r>
       <r>  -10.8679    1.0000 </r>
       <r>  -10.7830    1.0000 </r>
       <r>  -10.7824    1.0000 </r>
       <r>  -10.7252    1.0000 </r>
       <r>  -10.7248    1.0000 </r>
       <r>  -10.4448    1.0000 </r>
       <r>  -10.4445    1.0000 </r>
       <r>  -10.3762    1.0000 </r>
       <r>  -10.3753    1.0000 </r>
       <r>  -10.2592    1.0000 </r>
       <r>  -10.2588    1.0000 </r>
       <r>  -10.1957    1.0000 </r>
       <r>  -10.0941    1.0000 </r>
       <r>  -10.0930    1.0000 </r>
       <r>   -9.9773    1.0000 </r>
       <r>   -9.9761    1.0000 </r>
       <r>   -9.9505    1.0000 </r>
       <r>   -6.0486    1.0000 </r>
       <r>   -5.8524    1.0000 </r>
       <r>   -5.8511    1.0000 </r>
       <r>   -5.7695    1.0000 </r>
       <r>   -5.7671    1.0000 </r>
       <r>   -5.7666    1.0000 </r>
       <r>   -5.7316    1.0000 </r>
       <r>   -5.7311    1.0000 </r>
       <r>   -5.7212    1.0000 </r>
       <r>   -5.7205    1.0000 </r>
       <r>   -5.6450    1.0000 </r>
       <r>   -5.6236    1.0000 </r>
       <r>   -5.6226    1.0000 </r>
       <r>   -5.6169    1.0000 </r>
       <r>   -5.6161    1.0000 </r>
       <r>   -5.4794    1.0000 </r>
       <r>   -5.4785    1.0000 </r>
       <r>   -5.4012    1.0000 </r>
       <r>   -5.4002    1.0000 </r>
       <r>   -5.2319    1.0000 </r>
       <r>   -5.1487    1.0000 </r>
       <r>   -5.0681    1.0000 </r>
       <r>   -5.0676    1.0000 </r>
       <r>   -4.9515    1.0000 </r>
       <r>   -4.9506    1.0000 </r>
       <r>   -4.9144    1.0000 </r>
       <r>   -4.9135    1.0000 </r>
       <r>   -4.9037    1.0000 </r>
       <r>   -4.9035    1.0000 </r>
       <r>   -4.7778    1.0000 </r>
       <r>   -4.6499    1.0000 </r>
       <r>   -4.6484    1.0000 </r>
       <r>   -4.5877    1.0000 </r>
       <r>   -4.5258    1.0000 </r>
       <r>   -4.4345    1.0000 </r>
       <r>   -4.4329    1.0000 </r>
       <r>   -4.3930    1.0000 </r>
       <r>   -4.3926    1.0000 </r>
       <r>   -4.3184    1.0000 </r>
       <r>   -4.3171    1.0000 </r>
       <r>   -4.2842    1.0000 </r>
       <r>   -4.2839    1.0000 </r>
       <r>   -4.1992    1.0000 </r>
       <r>   -4.1988    1.0000 </r>
       <r>   -4.1820    1.0000 </r>
       <r>   -4.1812    1.0000 </r>
       <r>   -4.1343    1.0000 </r>
       <r>   -4.1333    1.0000 </r>
       <r>   -4.1027    1.0000 </r>
       <r>   -4.1024    1.0000 </r>
       <r>   -3.9968    1.0000 </r>
       <r>   -3.9965    1.0000 </r>
       <r>   -3.9847    1.0000 </r>
       <r>   -3.9838    1.0000 </r>
       <r>   -3.9832    1.0000 </r>
       <r>   -3.9150    1.0000 </r>
       <r>   -3.9133    1.0000 </r>
       <r>   -3.8636    1.0000 </r>
       <r>   -3.8632    1.0000 </r>
       <r>   -3.6844    1.0000 </r>
       <r>   -3.6840    1.0000 </r>
       <r>   -3.6130    1.0000 </r>
       <r>   -3.5465    1.0000 </r>
       <r>   -3.5456    1.0000 </r>
       <r>   -3.5001    1.0000 </r>
       <r>   -3.4991    1.0000 </r>
       <r>   -3.4103    1.0000 </r>
       <r>   -3.3978    1.0000 </r>
       <r>   -3.3964    1.0000 </r>
       <r>   -3.3887    1.0000 </r>
       <r>   -3.3553    1.0000 </r>
       <r>   -3.3541    1.0000 </r>
       <r>   -3.2438    1.0000 </r>
       <r>   -3.2428    1.0000 </r>
       <r>   -3.0345    1.0000 </r>
       <r>   -1.5721    0.0000 </r>
       <r>   -1.5708    0.0000 </r>
       <r>   -1.5658    0.0000 </r>
       <r>   -1.5646    0.0000 </r>
       <r>   -1.2984    0.0000 </r>
       <r>   -1.2792    0.0000 </r>
       <r>   -1.2791    0.0000 </r>
       <r>   -1.2620    0.0000 </r>
       <r>   -1.1954    0.0000 </r>
       <r>   -1.1946    0.0000 </r>
       <r>   -1.1162    0.0000 </r>
       <r>   -1.1159    0.0000 </r>
       <r>   -1.0692    0.0000 </r>
       <r>   -1.0680    0.0000 </r>
       <r>   -1.0639    0.0000 </r>
       <r>   -1.0631    0.0000 </r>
       <r>   -1.0488    0.0000 </r>
       <r>   -1.0486    0.0000 </r>
       <r>   -0.9300    0.0000 </r>
       <r>   -0.9099    0.0000 </r>
       <r>   -0.9086    0.0000 </r>
       <r>   -0.8821    0.0000 </r>
       <r>   -0.8351    0.0000 </r>
       <r>   -0.8346    0.0000 </r>
       <r>   -0.8113    0.0000 </r>
       <r>   -0.5741    0.0000 </r>
       <r>   -0.4691    0.0000 </r>
       <r>   -0.4682    0.0000 </r>
       <r>   -0.4547    0.0000 </r>
       <r>   -0.4544    0.0000 </r>
       <r>   -0.4173    0.0000 </r>
       <r>   -0.3305    0.0000 </r>
       <r>   -0.3110    0.0000 </r>
       <r>   -0.3101    0.0000 </r>
       <r>   -0.2805    0.0000 </r>
       <r>   -0.2799    0.0000 </r>
       <r>   -0.2782    0.0000 </r>
       <r>   -0.2244    0.0000 </r>
       <r>   -0.2236    0.0000 </r>
       <r>   -0.1813    0.0000 </r>
       <r>   -0.1803    0.0000 </r>
       <r>   -0.0262    0.0000 </r>
       <r>   -0.0258    0.0000 </r>
       <r>   -0.0171    0.0000 </r>
       <r>    0.0849    0.0000 </r>
       <r>    0.0863    0.0000 </r>
       <r>    0.1227    0.0000 </r>
       <r>    0.1241    0.0000 </r>
       <r>    0.1799    0.0000 </r>
       <r>    0.1810    0.0000 </r>
       <r>    0.2087    0.0000 </r>
       <r>    0.2093    0.0000 </r>
       <r>    0.2639    0.0000 </r>
       <r>    0.2650    0.0000 </r>
       <r>    0.2673    0.0000 </r>
       <r>    0.2694    0.0000 </r>
       <r>    0.3148    0.0000 </r>
       <r>    0.3368    0.0000 </r>
      </set>
      <set comment="kpoint 10">
       <r>  -25.2699    1.0000 </r>
       <r>  -25.2699    1.0000 </r>
       <r>  -25.2689    1.0000 </r>
       <r>  -25.2684    1.0000 </r>
       <r>  -25.2682    1.0000 </r>
       <r>  -25.2680    1.0000 </r>
       <r>  -25.2680    1.0000 </r>
       <r>  -25.2672    1.0000 </r>
       <r>  -25.2671    1.0000 </r>
       <r>  -25.2670    1.0000 </r>
       <r>  -25.2670    1.0000 </r>
       <r>  -25.2669    1.0000 </r>
       <r>  -25.2668    1.0000 </r>
       <r>  -25.2668    1.0000 </r>
       <r>  -25.2667    1.0000 </r>
       <r>  -25.2657    1.0000 </r>
       <r>  -25.2654    1.0000 </r>
       <r>  -25.2654    1.0000 </r>
       <r>  -25.2649    1.0000 </r>
       <r>  -25.2644    1.0000 </r>
       <r>  -25.2644    1.0000 </r>
       <r>  -25.2643    1.0000 </r>
       <r>  -25.2642    1.0000 </r>
       <r>  -25.2639    1.0000 </r>
       <r>  -25.2628    1.0000 </r>
       <r>  -25.2623    1.0000 </r>
       <r>  -25.2607    1.0000 </r>
       <r>  -25.2607    1.0000 </r>
       <r>  -25.2569    1.0000 </r>
       <r>  -25.2568    1.0000 </r>
       <r>  -25.2551    1.0000 </r>
       <r>  -25.2534    1.0000 </r>
       <r>  -25.2532    1.0000 </r>
       <r>  -25.2523    1.0000 </r>
       <r>  -25.2523    1.0000 </r>
       <r>  -25.2521    1.0000 </r>
       <r>  -25.2513    1.0000 </r>
       <r>  -25.2512    1.0000 </r>
       <r>  -25.2511    1.0000 </r>
       <r>  -25.2508    1.0000 </r>
       <r>  -25.2508    1.0000 </r>
       <r>  -25.2502    1.0000 </r>
       <r>  -25.2501    1.0000 </r>
       <r>  -25.2492    1.0000 </r>
       <r>  -25.2490    1.0000 </r>
       <r>  -25.2487    1.0000 </r>
       <r>  -25.2485    1.0000 </r>
       <r>  -25.2473    1.0000 </r>
       <r>  -25.2466    1.0000 </r>
       <r>  -25.2466    1.0000 </r>
       <r>  -25.2326    1.0000 </r>
       <r>  -25.2325    1.0000 </r>
       <r>  -25.2322    1.0000 </r>
       <r>  -25.2316    1.0000 </r>
       <r>  -25.2314    1.0000 </r>
       <r>  -25.2313    1.0000 </r>
       <r>  -25.2313    1.0000 </r>
       <r>  -25.2307    1.0000 </r>
       <r>  -25.2307    1.0000 </r>
       <r>  -25.2303    1.0000 </r>
       <r>  -25.2303    1.0000 </r>
       <r>  -25.2302    1.0000 </r>
       <r>  -25.2300    1.0000 </r>
       <r>  -25.2300    1.0000 </r>
       <r>  -25.2295    1.0000 </r>
       <r>  -25.2294    1.0000 </r>
       <r>  -25.2290    1.0000 </r>
       <r>  -25.2289    1.0000 </r>
       <r>  -25.2287    1.0000 </r>
       <r>  -25.2280    1.0000 </r>
       <r>  -25.2277    1.0000 </r>
       <r>  -25.2270    1.0000 </r>
       <r>  -25.2269    1.0000 </r>
       <r>  -25.2264    1.0000 </r>
       <r>  -25.2264    1.0000 </r>
       <r>  -25.2258    1.0000 </r>
       <r>  -25.2250    1.0000 </r>
       <r>  -25.2249    1.0000 </r>
       <r>  -25.2249    1.0000 </r>
       <r>  -25.2248    1.0000 </r>
       <r>  -25.2248    1.0000 </r>
       <r>  -25.2247    1.0000 </r>
       <r>  -25.2244    1.0000 </r>
       <r>  -25.2243    1.0000 </r>
       <r>  -25.2242    1.0000 </r>
       <r>  -25.2242    1.0000 </r>
       <r>  -25.2241    1.0000 </r>
       <r>  -25.2240    1.0000 </r>
       <r>  -25.2240    1.0000 </r>
       <r>  -25.2240    1.0000 </r>
       <r>  -25.2239    1.0000 </r>
       <r>  -25.2239    1.0000 </r>
       <r>  -25.2238    1.0000 </r>
       <r>  -25.2237    1.0000 </r>
       <r>  -25.2237    1.0000 </r>
       <r>  -25.2235    1.0000 </r>
       <r>  -25.2235    1.0000 </r>
       <r>  -25.2231    1.0000 </r>
       <r>  -25.2231    1.0000 </r>
       <r>  -25.2229    1.0000 </r>
       <r>  -25.2130    1.0000 </r>
       <r>  -25.2121    1.0000 </r>
       <r>  -25.2118    1.0000 </r>
       <r>  -25.2093    1.0000 </r>
       <r>  -25.2092    1.0000 </r>
       <r>  -25.2078    1.0000 </r>
       <r>  -25.2072    1.0000 </r>
       <r>  -25.2070    1.0000 </r>
       <r>  -25.2060    1.0000 </r>
       <r>  -25.2059    1.0000 </r>
       <r>  -25.2054    1.0000 </r>
       <r>  -25.2053    1.0000 </r>
       <r>  -25.2036    1.0000 </r>
       <r>  -25.2036    1.0000 </r>
       <r>  -25.2033    1.0000 </r>
       <r>  -25.2031    1.0000 </r>
       <r>  -25.2030    1.0000 </r>
       <r>  -25.2028    1.0000 </r>
       <r>  -25.2026    1.0000 </r>
       <r>  -25.2025    1.0000 </r>
       <r>  -25.2024    1.0000 </r>
       <r>  -25.2023    1.0000 </r>
       <r>  -25.2022    1.0000 </r>
       <r>  -25.2018    1.0000 </r>
       <r>  -25.2016    1.0000 </r>
       <r>  -14.5438    1.0000 </r>
       <r>  -14.4559    1.0000 </r>
       <r>  -14.4549    1.0000 </r>
       <r>  -14.1994    1.0000 </r>
       <r>  -14.1986    1.0000 </r>
       <r>  -14.0361    1.0000 </r>
       <r>  -13.9599    1.0000 </r>
       <r>  -13.9590    1.0000 </r>
       <r>  -13.8088    1.0000 </r>
       <r>  -13.8081    1.0000 </r>
       <r>  -13.7409    1.0000 </r>
       <r>  -13.7401    1.0000 </r>
       <r>  -13.4176    1.0000 </r>
       <r>  -13.4171    1.0000 </r>
       <r>  -13.3794    1.0000 </r>
       <r>  -13.3789    1.0000 </r>
       <r>  -13.2454    1.0000 </r>
       <r>  -13.2325    1.0000 </r>
       <r>  -13.2319    1.0000 </r>
       <r>  -13.2104    1.0000 </r>
       <r>  -13.2099    1.0000 </r>
       <r>  -13.1588    1.0000 </r>
       <r>  -13.0812    1.0000 </r>
       <r>  -13.0808    1.0000 </r>
       <r>  -12.9189    1.0000 </r>
       <r>  -11.1673    1.0000 </r>
       <r>  -11.0222    1.0000 </r>
       <r>  -11.0217    1.0000 </r>
       <r>  -11.0111    1.0000 </r>
       <r>  -10.9774    1.0000 </r>
       <r>  -10.9765    1.0000 </r>
       <r>  -10.9100    1.0000 </r>
       <r>  -10.9094    1.0000 </r>
       <r>  -10.8677    1.0000 </r>
       <r>  -10.7831    1.0000 </r>
       <r>  -10.7829    1.0000 </r>
       <r>  -10.7253    1.0000 </r>
       <r>  -10.7247    1.0000 </r>
       <r>  -10.4449    1.0000 </r>
       <r>  -10.4443    1.0000 </r>
       <r>  -10.3762    1.0000 </r>
       <r>  -10.3756    1.0000 </r>
       <r>  -10.2593    1.0000 </r>
       <r>  -10.2585    1.0000 </r>
       <r>  -10.1956    1.0000 </r>
       <r>  -10.0941    1.0000 </r>
       <r>  -10.0931    1.0000 </r>
       <r>   -9.9774    1.0000 </r>
       <r>   -9.9761    1.0000 </r>
       <r>   -9.9505    1.0000 </r>
       <r>   -6.0486    1.0000 </r>
       <r>   -5.8522    1.0000 </r>
       <r>   -5.8512    1.0000 </r>
       <r>   -5.7693    1.0000 </r>
       <r>   -5.7672    1.0000 </r>
       <r>   -5.7667    1.0000 </r>
       <r>   -5.7318    1.0000 </r>
       <r>   -5.7311    1.0000 </r>
       <r>   -5.7208    1.0000 </r>
       <r>   -5.7206    1.0000 </r>
       <r>   -5.6452    1.0000 </r>
       <r>   -5.6234    1.0000 </r>
       <r>   -5.6228    1.0000 </r>
       <r>   -5.6167    1.0000 </r>
       <r>   -5.6163    1.0000 </r>
       <r>   -5.4792    1.0000 </r>
       <r>   -5.4789    1.0000 </r>
       <r>   -5.4009    1.0000 </r>
       <r>   -5.4004    1.0000 </r>
       <r>   -5.2318    1.0000 </r>
       <r>   -5.1484    1.0000 </r>
       <r>   -5.0679    1.0000 </r>
       <r>   -5.0678    1.0000 </r>
       <r>   -4.9513    1.0000 </r>
       <r>   -4.9509    1.0000 </r>
       <r>   -4.9144    1.0000 </r>
       <r>   -4.9138    1.0000 </r>
       <r>   -4.9037    1.0000 </r>
       <r>   -4.9034    1.0000 </r>
       <r>   -4.7777    1.0000 </r>
       <r>   -4.6496    1.0000 </r>
       <r>   -4.6486    1.0000 </r>
       <r>   -4.5876    1.0000 </r>
       <r>   -4.5259    1.0000 </r>
       <r>   -4.4341    1.0000 </r>
       <r>   -4.4330    1.0000 </r>
       <r>   -4.3930    1.0000 </r>
       <r>   -4.3925    1.0000 </r>
       <r>   -4.3187    1.0000 </r>
       <r>   -4.3174    1.0000 </r>
       <r>   -4.2843    1.0000 </r>
       <r>   -4.2837    1.0000 </r>
       <r>   -4.1992    1.0000 </r>
       <r>   -4.1988    1.0000 </r>
       <r>   -4.1819    1.0000 </r>
       <r>   -4.1814    1.0000 </r>
       <r>   -4.1342    1.0000 </r>
       <r>   -4.1335    1.0000 </r>
       <r>   -4.1028    1.0000 </r>
       <r>   -4.1022    1.0000 </r>
       <r>   -3.9970    1.0000 </r>
       <r>   -3.9964    1.0000 </r>
       <r>   -3.9847    1.0000 </r>
       <r>   -3.9840    1.0000 </r>
       <r>   -3.9832    1.0000 </r>
       <r>   -3.9145    1.0000 </r>
       <r>   -3.9134    1.0000 </r>
       <r>   -3.8636    1.0000 </r>
       <r>   -3.8631    1.0000 </r>
       <r>   -3.6844    1.0000 </r>
       <r>   -3.6838    1.0000 </r>
       <r>   -3.6126    1.0000 </r>
       <r>   -3.5465    1.0000 </r>
       <r>   -3.5457    1.0000 </r>
       <r>   -3.5001    1.0000 </r>
       <r>   -3.4991    1.0000 </r>
       <r>   -3.4103    1.0000 </r>
       <r>   -3.3978    1.0000 </r>
       <r>   -3.3965    1.0000 </r>
       <r>   -3.3888    1.0000 </r>
       <r>   -3.3553    1.0000 </r>
       <r>   -3.3541    1.0000 </r>
       <r>   -3.2437    1.0000 </r>
       <r>   -3.2427    1.0000 </r>
       <r>   -3.0350    1.0000 </r>
       <r>   -1.5718    0.0000 </r>
       <r>   -1.5711    0.0000 </r>
       <r>   -1.5657    0.0000 </r>
       <r>   -1.5649    0.0000 </r>
       <r>   -1.2984    0.0000 </r>
       <r>   -1.2792    0.0000 </r>
       <r>   -1.2787    0.0000 </r>
       <r>   -1.2619    0.0000 </r>
       <r>   -1.1952    0.0000 </r>
       <r>   -1.1948    0.0000 </r>
       <r>   -1.1162    0.0000 </r>
       <r>   -1.1156    0.0000 </r>
       <r>   -1.0692    0.0000 </r>
       <r>   -1.0680    0.0000 </r>
       <r>   -1.0638    0.0000 </r>
       <r>   -1.0634    0.0000 </r>
       <r>   -1.0488    0.0000 </r>
       <r>   -1.0482    0.0000 </r>
       <r>   -0.9302    0.0000 </r>
       <r>   -0.9100    0.0000 </r>
       <r>   -0.9089    0.0000 </r>
       <r>   -0.8821    0.0000 </r>
       <r>   -0.8351    0.0000 </r>
       <r>   -0.8344    0.0000 </r>
       <r>   -0.8112    0.0000 </r>
       <r>   -0.5737    0.0000 </r>
       <r>   -0.4693    0.0000 </r>
       <r>   -0.4685    0.0000 </r>
       <r>   -0.4547    0.0000 </r>
       <r>   -0.4542    0.0000 </r>
       <r>   -0.4177    0.0000 </r>
       <r>   -0.3301    0.0000 </r>
       <r>   -0.3111    0.0000 </r>
       <r>   -0.3103    0.0000 </r>
       <r>   -0.2805    0.0000 </r>
       <r>   -0.2803    0.0000 </r>
       <r>   -0.2788    0.0000 </r>
       <r>   -0.2243    0.0000 </r>
       <r>   -0.2230    0.0000 </r>
       <r>   -0.1813    0.0000 </r>
       <r>   -0.1798    0.0000 </r>
       <r>   -0.0264    0.0000 </r>
       <r>   -0.0254    0.0000 </r>
       <r>   -0.0167    0.0000 </r>
       <r>    0.0849    0.0000 </r>
       <r>    0.0861    0.0000 </r>
       <r>    0.1229    0.0000 </r>
       <r>    0.1237    0.0000 </r>
       <r>    0.1801    0.0000 </r>
       <r>    0.1808    0.0000 </r>
       <r>    0.2088    0.0000 </r>
       <r>    0.2096    0.0000 </r>
       <r>    0.2645    0.0000 </r>
       <r>    0.2651    0.0000 </r>
       <r>    0.2683    0.0000 </r>
       <r>    0.2711    0.0000 </r>
       <r>    0.3233    0.0000 </r>
       <r>    0.3342    0.0000 </r>
      </set>
     </set>
    </set>
   </array>
  </eigenvalues>
  <separator name="orbital magnetization" >
   <v name="MAGDIPOLOUT">      0.00000000      0.00000000      0.00000000</v>
  </separator>
  <dos>
   <i name="efermi">     -2.55798915 </i>
   <total>
    <array>
     <dimension dim="1">gridpoints</dimension>
     <dimension dim="2">spin</dimension>
     <field>energy</field>
     <field>total</field>
     <field>integrated</field>
     <set>
      <set comment="spin 1">
       <r>   -26.5532     0.0000     0.0000 </r>
       <r>   -26.4591     0.0000     0.0000 </r>
       <r>   -26.3650     0.0000     0.0000 </r>
       <r>   -26.2710     0.0000     0.0000 </r>
       <r>   -26.1769     0.0000     0.0000 </r>
       <r>   -26.0828     0.0000     0.0000 </r>
       <r>   -25.9887     0.0000     0.0000 </r>
       <r>   -25.8947     0.0000     0.0000 </r>
       <r>   -25.8006     0.0000     0.0000 </r>
       <r>   -25.7065     0.0000     0.0000 </r>
       <r>   -25.6124     0.0000     0.0000 </r>
       <r>   -25.5184     0.0000     0.0000 </r>
       <r>   -25.4243     0.0026     0.0002 </r>
       <r>   -25.3302    28.7770     2.7075 </r>
       <r>   -25.2361  1283.0617   123.4125 </r>
       <r>   -25.1421  1316.2690   247.2415 </r>
       <r>   -25.0480    29.3193   249.9997 </r>
       <r>   -24.9539     0.0027   250.0000 </r>
       <r>   -24.8598     0.0000   250.0000 </r>
       <r>   -24.7658     0.0000   250.0000 </r>
       <r>   -24.6717     0.0000   250.0000 </r>
       <r>   -24.5776     0.0000   250.0000 </r>
       <r>   -24.4835     0.0000   250.0000 </r>
       <r>   -24.3894     0.0000   250.0000 </r>
       <r>   -24.2954     0.0000   250.0000 </r>
       <r>   -24.2013     0.0000   250.0000 </r>
       <r>   -24.1072     0.0000   250.0000 </r>
       <r>   -24.0131     0.0000   250.0000 </r>
       <r>   -23.9191     0.0000   250.0000 </r>
       <r>   -23.8250     0.0000   250.0000 </r>
       <r>   -23.7309     0.0000   250.0000 </r>
       <r>   -23.6368     0.0000   250.0000 </r>
       <r>   -23.5428     0.0000   250.0000 </r>
       <r>   -23.4487     0.0000   250.0000 </r>
       <r>   -23.3546     0.0000   250.0000 </r>
       <r>   -23.2605     0.0000   250.0000 </r>
       <r>   -23.1665     0.0000   250.0000 </r>
       <r>   -23.0724     0.0000   250.0000 </r>
       <r>   -22.9783     0.0000   250.0000 </r>
       <r>   -22.8842     0.0000   250.0000 </r>
       <r>   -22.7902     0.0000   250.0000 </r>
       <r>   -22.6961     0.0000   250.0000 </r>
       <r>   -22.6020     0.0000   250.0000 </r>
       <r>   -22.5079     0.0000   250.0000 </r>
       <r>   -22.4139     0.0000   250.0000 </r>
       <r>   -22.3198     0.0000   250.0000 </r>
       <r>   -22.2257     0.0000   250.0000 </r>
       <r>   -22.1316     0.0000   250.0000 </r>
       <r>   -22.0376     0.0000   250.0000 </r>
       <r>   -21.9435     0.0000   250.0000 </r>
       <r>   -21.8494     0.0000   250.0000 </r>
       <r>   -21.7553     0.0000   250.0000 </r>
       <r>   -21.6613     0.0000   250.0000 </r>
       <r>   -21.5672     0.0000   250.0000 </r>
       <r>   -21.4731     0.0000   250.0000 </r>
       <r>   -21.3790     0.0000   250.0000 </r>
       <r>   -21.2849     0.0000   250.0000 </r>
       <r>   -21.1909     0.0000   250.0000 </r>
       <r>   -21.0968     0.0000   250.0000 </r>
       <r>   -21.0027     0.0000   250.0000 </r>
       <r>   -20.9086     0.0000   250.0000 </r>
       <r>   -20.8146     0.0000   250.0000 </r>
       <r>   -20.7205     0.0000   250.0000 </r>
       <r>   -20.6264     0.0000   250.0000 </r>
       <r>   -20.5323     0.0000   250.0000 </r>
       <r>   -20.4383     0.0000   250.0000 </r>
       <r>   -20.3442     0.0000   250.0000 </r>
       <r>   -20.2501     0.0000   250.0000 </r>
       <r>   -20.1560     0.0000   250.0000 </r>
       <r>   -20.0620     0.0000   250.0000 </r>
       <r>   -19.9679     0.0000   250.0000 </r>
       <r>   -19.8738     0.0000   250.0000 </r>
       <r>   -19.7797     0.0000   250.0000 </r>
       <r>   -19.6857     0.0000   250.0000 </r>
       <r>   -19.5916     0.0000   250.0000 </r>
       <r>   -19.4975     0.0000   250.0000 </r>
       <r>   -19.4034     0.0000   250.0000 </r>
       <r>   -19.3094     0.0000   250.0000 </r>
       <r>   -19.2153     0.0000   250.0000 </r>
       <r>   -19.1212     0.0000   250.0000 </r>
       <r>   -19.0271     0.0000   250.0000 </r>
       <r>   -18.9331     0.0000   250.0000 </r>
       <r>   -18.8390     0.0000   250.0000 </r>
       <r>   -18.7449     0.0000   250.0000 </r>
       <r>   -18.6508     0.0000   250.0000 </r>
       <r>   -18.5568     0.0000   250.0000 </r>
       <r>   -18.4627     0.0000   250.0000 </r>
       <r>   -18.3686     0.0000   250.0000 </r>
       <r>   -18.2745     0.0000   250.0000 </r>
       <r>   -18.1804     0.0000   250.0000 </r>
       <r>   -18.0864     0.0000   250.0000 </r>
       <r>   -17.9923     0.0000   250.0000 </r>
       <r>   -17.8982     0.0000   250.0000 </r>
       <r>   -17.8041     0.0000   250.0000 </r>
       <r>   -17.7101     0.0000   250.0000 </r>
       <r>   -17.6160     0.0000   250.0000 </r>
       <r>   -17.5219     0.0000   250.0000 </r>
       <r>   -17.4278     0.0000   250.0000 </r>
       <r>   -17.3338     0.0000   250.0000 </r>
       <r>   -17.2397     0.0000   250.0000 </r>
       <r>   -17.1456     0.0000   250.0000 </r>
       <r>   -17.0515     0.0000   250.0000 </r>
       <r>   -16.9575     0.0000   250.0000 </r>
       <r>   -16.8634     0.0000   250.0000 </r>
       <r>   -16.7693     0.0000   250.0000 </r>
       <r>   -16.6752     0.0000   250.0000 </r>
       <r>   -16.5812     0.0000   250.0000 </r>
       <r>   -16.4871     0.0000   250.0000 </r>
       <r>   -16.3930     0.0000   250.0000 </r>
       <r>   -16.2989     0.0000   250.0000 </r>
       <r>   -16.2049     0.0000   250.0000 </r>
       <r>   -16.1108     0.0000   250.0000 </r>
       <r>   -16.0167     0.0000   250.0000 </r>
       <r>   -15.9226     0.0000   250.0000 </r>
       <r>   -15.8286     0.0000   250.0000 </r>
       <r>   -15.7345     0.0000   250.0000 </r>
       <r>   -15.6404     0.0000   250.0000 </r>
       <r>   -15.5463     0.0000   250.0000 </r>
       <r>   -15.4523     0.0000   250.0000 </r>
       <r>   -15.3582     0.0000   250.0000 </r>
       <r>   -15.2641     0.0000   250.0000 </r>
       <r>   -15.1700     0.0000   250.0000 </r>
       <r>   -15.0759     0.0000   250.0000 </r>
       <r>   -14.9819     0.0000   250.0000 </r>
       <r>   -14.8878     0.0000   250.0000 </r>
       <r>   -14.7937     0.0000   250.0000 </r>
       <r>   -14.6996     0.0147   250.0014 </r>
       <r>   -14.6056     3.6292   250.3428 </r>
       <r>   -14.5115    17.8688   252.0238 </r>
       <r>   -14.4174    21.1505   254.0136 </r>
       <r>   -14.3233    21.1118   255.9997 </r>
       <r>   -14.2293    19.2881   257.8142 </r>
       <r>   -14.1352    25.6203   260.2245 </r>
       <r>   -14.0411    18.6215   261.9763 </r>
       <r>   -13.9470    27.3711   264.5513 </r>
       <r>   -13.8530    19.1311   266.3511 </r>
       <r>   -13.7589    30.2179   269.1938 </r>
       <r>   -13.6648    19.6808   271.0453 </r>
       <r>   -13.5707    35.8899   274.4217 </r>
       <r>   -13.4767    22.6549   276.5530 </r>
       <r>   -13.3826    42.0290   280.5069 </r>
       <r>   -13.2885    31.8149   283.4999 </r>
       <r>   -13.1944    66.3999   289.7465 </r>
       <r>   -13.1004    43.7943   293.8665 </r>
       <r>   -13.0063    36.2302   297.2749 </r>
       <r>   -12.9122    24.6010   299.5892 </r>
       <r>   -12.8181     4.3488   299.9983 </r>
       <r>   -12.7241     0.0176   300.0000 </r>
       <r>   -12.6300     0.0000   300.0000 </r>
       <r>   -12.5359     0.0000   300.0000 </r>
       <r>   -12.4418     0.0000   300.0000 </r>
       <r>   -12.3477     0.0000   300.0000 </r>
       <r>   -12.2537     0.0000   300.0000 </r>
       <r>   -12.1596     0.0000   300.0000 </r>
       <r>   -12.0655     0.0000   300.0000 </r>
       <r>   -11.9714     0.0000   300.0000 </r>
       <r>   -11.8774     0.0000   300.0000 </r>
       <r>   -11.7833     0.0000   300.0000 </r>
       <r>   -11.6892     0.0000   300.0000 </r>
       <r>   -11.5951     0.0000   300.0000 </r>
       <r>   -11.5011     0.0000   300.0000 </r>
       <r>   -11.4070     0.0000   300.0000 </r>
       <r>   -11.3129     0.0002   300.0000 </r>
       <r>   -11.2188     0.6458   300.0608 </r>
       <r>   -11.1248    18.1030   301.7638 </r>
       <r>   -11.0307    44.7025   305.9692 </r>
       <r>   -10.9366    66.6548   312.2399 </r>
       <r>   -10.8425    55.1052   317.4239 </r>
       <r>   -10.7485    32.8078   320.5103 </r>
       <r>   -10.6544    39.0519   324.1842 </r>
       <r>   -10.5603    25.7921   326.6106 </r>
       <r>   -10.4662    34.2967   329.8371 </r>
       <r>   -10.3722    26.2309   332.3048 </r>
       <r>   -10.2781    31.5206   335.2701 </r>
       <r>   -10.1840    32.6722   338.3438 </r>
       <r>   -10.0899    34.7972   341.6173 </r>
       <r>    -9.9959    45.5345   345.9010 </r>
       <r>    -9.9018    40.7682   349.7363 </r>
       <r>    -9.8077     2.8016   349.9999 </r>
       <r>    -9.7136     0.0012   350.0000 </r>
       <r>    -9.6196     0.0000   350.0000 </r>
       <r>    -9.5255     0.0000   350.0000 </r>
       <r>    -9.4314     0.0000   350.0000 </r>
       <r>    -9.3373     0.0000   350.0000 </r>
       <r>    -9.2432     0.0000   350.0000 </r>
       <r>    -9.1492     0.0000   350.0000 </r>
       <r>    -9.0551     0.0000   350.0000 </r>
       <r>    -8.9610     0.0000   350.0000 </r>
       <r>    -8.8669     0.0000   350.0000 </r>
       <r>    -8.7729     0.0000   350.0000 </r>
       <r>    -8.6788     0.0000   350.0000 </r>
       <r>    -8.5847     0.0000   350.0000 </r>
       <r>    -8.4906     0.0000   350.0000 </r>
       <r>    -8.3966     0.0000   350.0000 </r>
       <r>    -8.3025     0.0000   350.0000 </r>
       <r>    -8.2084     0.0000   350.0000 </r>
       <r>    -8.1143     0.0000   350.0000 </r>
       <r>    -8.0203     0.0000   350.0000 </r>
       <r>    -7.9262     0.0000   350.0000 </r>
       <r>    -7.8321     0.0000   350.0000 </r>
       <r>    -7.7380     0.0000   350.0000 </r>
       <r>    -7.6440     0.0000   350.0000 </r>
       <r>    -7.5499     0.0000   350.0000 </r>
       <r>    -7.4558     0.0000   350.0000 </r>
       <r>    -7.3617     0.0000   350.0000 </r>
       <r>    -7.2677     0.0000   350.0000 </r>
       <r>    -7.1736     0.0000   350.0000 </r>
       <r>    -7.0795     0.0000   350.0000 </r>
       <r>    -6.9854     0.0000   350.0000 </r>
       <r>    -6.8914     0.0000   350.0000 </r>
       <r>    -6.7973     0.0000   350.0000 </r>
       <r>    -6.7032     0.0000   350.0000 </r>
       <r>    -6.6091     0.0000   350.0000 </r>
       <r>    -6.5151     0.0000   350.0000 </r>
       <r>    -6.4210     0.0000   350.0000 </r>
       <r>    -6.3269     0.0000   350.0000 </r>
       <r>    -6.2328     0.0000   350.0000 </r>
       <r>    -6.1387     0.0432   350.0041 </r>
       <r>    -6.0447     5.1104   350.4848 </r>
       <r>    -5.9506    19.8949   352.3565 </r>
       <r>    -5.8565    23.2983   354.5483 </r>
       <r>    -5.7624    83.7679   362.4288 </r>
       <r>    -5.6684   100.7232   371.9044 </r>
       <r>    -5.5743    55.4657   377.1224 </r>
       <r>    -5.4802    32.2383   380.1552 </r>
       <r>    -5.3861    39.7501   383.8947 </r>
       <r>    -5.2921    27.5779   386.4892 </r>
       <r>    -5.1980    41.0735   390.3532 </r>
       <r>    -5.1039    31.0898   393.2780 </r>
       <r>    -5.0098    39.7511   397.0176 </r>
       <r>    -4.9158    53.2454   402.0267 </r>
       <r>    -4.8217    67.9943   408.4233 </r>
       <r>    -4.7276    20.6612   410.3670 </r>
       <r>    -4.6335    41.0933   414.2329 </r>
       <r>    -4.5395    50.4863   418.9824 </r>
       <r>    -4.4454    21.3942   420.9951 </r>
       <r>    -4.3513    71.0196   427.6763 </r>
       <r>    -4.2572    87.8711   435.9429 </r>
       <r>    -4.1632    88.2593   444.2460 </r>
       <r>    -4.0691    61.8372   450.0633 </r>
       <r>    -3.9750    50.2162   454.7875 </r>
       <r>    -3.8809    53.8471   459.8532 </r>
       <r>    -3.7869    44.0204   463.9944 </r>
       <r>    -3.6928    49.4414   468.6457 </r>
       <r>    -3.5987    46.3563   473.0067 </r>
       <r>    -3.5046    54.6636   478.1492 </r>
       <r>    -3.4106    76.9362   485.3870 </r>
       <r>    -3.3165    90.6366   493.9137 </r>
       <r>    -3.2224    27.1664   496.4694 </r>
       <r>    -3.1283    11.1135   497.5149 </r>
       <r>    -3.0342    10.4342   498.4965 </r>
       <r>    -2.9402     7.0754   499.1622 </r>
       <r>    -2.8461     7.5911   499.8763 </r>
       <r>    -2.7520     1.3099   499.9995 </r>
       <r>    -2.6579     0.0049   500.0000 </r>
       <r>    -2.5639     0.0000   500.0000 </r>
       <r>    -2.4698     0.0000   500.0000 </r>
       <r>    -2.3757     0.0000   500.0000 </r>
       <r>    -2.2816     0.0000   500.0000 </r>
       <r>    -2.1876     0.0000   500.0000 </r>
       <r>    -2.0935     0.0000   500.0000 </r>
       <r>    -1.9994     0.0024   500.0002 </r>
       <r>    -1.9053     0.5340   500.0505 </r>
       <r>    -1.8113     0.8052   500.1262 </r>
       <r>    -1.7172     4.6000   500.5590 </r>
       <r>    -1.6231    19.8835   502.4295 </r>
       <r>    -1.5290    40.1585   506.2075 </r>
       <r>    -1.4350    39.3659   509.9108 </r>
       <r>    -1.3409    21.8133   511.9629 </r>
       <r>    -1.2468    68.3530   518.3933 </r>
       <r>    -1.1527    75.1950   525.4673 </r>
       <r>    -1.0587    45.7170   529.7682 </r>
       <r>    -0.9646    51.7604   534.6376 </r>
       <r>    -0.8705    84.8466   542.6196 </r>
       <r>    -0.7764    46.0297   546.9499 </r>
       <r>    -0.6824    30.3976   549.8096 </r>
       <r>    -0.5883     5.2481   550.3033 </r>
       <r>    -0.4942    19.9658   552.1816 </r>
       <r>    -0.4001    70.1072   558.7770 </r>
       <r>    -0.3061    67.7398   565.1497 </r>
       <r>    -0.2120    97.6605   574.3371 </r>
       <r>    -0.1179    67.8780   580.7228 </r>
       <r>    -0.0238    59.5473   586.3248 </r>
       <r>     0.0703    53.2520   591.3345 </r>
       <r>     0.1643    65.6917   597.5145 </r>
       <r>     0.2584   105.0317   607.3954 </r>
       <r>     0.3525    66.0596   613.6100 </r>
       <r>     0.4466    24.9819   615.9602 </r>
       <r>     0.5406     0.4228   616.0000 </r>
       <r>     0.6347     0.0000   616.0000 </r>
       <r>     0.7288     0.0000   616.0000 </r>
       <r>     0.8229     0.0000   616.0000 </r>
       <r>     0.9169     0.0000   616.0000 </r>
       <r>     1.0110     0.0000   616.0000 </r>
       <r>     1.1051     0.0000   616.0000 </r>
       <r>     1.1992     0.0000   616.0000 </r>
       <r>     1.2932     0.0000   616.0000 </r>
       <r>     1.3873     0.0000   616.0000 </r>
       <r>     1.4814     0.0000   616.0000 </r>
       <r>     1.5755     0.0000   616.0000 </r>
       <r>     1.6695     0.0000   616.0000 </r>
      </set>
     </set>
    </array>
   </total>
  </dos>
 </calculation>
 <structure name="finalpos" >
  <crystal>
   <varray name="basis" >
    <v>      21.32465726      -0.00000000       0.00000000 </v>
    <v>     -10.66232863      18.46769492       0.00000000 </v>
    <v>       0.00000000       0.00000000      26.60855257 </v>
   </varray>
   <i name="volume">  10478.90738675 </i>
   <varray name="rec_basis" >
    <v>       0.04689407       0.02707430      -0.00000000 </v>
    <v>       0.00000000       0.05414861      -0.00000000 </v>
    <v>       0.00000000       0.00000000       0.03758190 </v>
   </varray>
  </crystal>
  <varray name="positions" >
   <v>       0.13333333       0.06666667       0.53165059 </v>
   <v>       0.33333333       0.06666667       0.53165059 </v>
   <v>       0.53333333       0.06666667       0.53165059 </v>
   <v>       0.73333333       0.06666667       0.53165059 </v>
   <v>       0.93333333       0.06666667       0.53165059 </v>
   <v>       0.13333333       0.26666667       0.53165059 </v>
   <v>       0.33333333       0.26666667       0.53165059 </v>
   <v>       0.53333333       0.26666667       0.53165059 </v>
   <v>       0.73333333       0.26666667       0.53165059 </v>
   <v>       0.93333333       0.26666667       0.53165059 </v>
   <v>       0.13333333       0.46666667       0.53165059 </v>
   <v>       0.33333333       0.46666667       0.53165059 </v>
   <v>       0.53333333       0.46666667       0.53165059 </v>
   <v>       0.73333333       0.46666667       0.53165059 </v>
   <v>       0.93333333       0.46666667       0.53165059 </v>
   <v>       0.13333333       0.66666667       0.53165059 </v>
   <v>       0.33333333       0.66666667       0.53165059 </v>
   <v>       0.53333333       0.66666667       0.53165059 </v>
   <v>       0.73333333       0.66666667       0.53165059 </v>
   <v>       0.93333333       0.66666667       0.53165059 </v>
   <v>       0.13333333       0.86666667       0.53165059 </v>
   <v>       0.33333333       0.86666667       0.53165059 </v>
   <v>       0.53333333       0.86666667       0.53165059 </v>
   <v>       0.73333333       0.86666667       0.53165059 </v>
   <v>       0.93333333       0.86666667       0.53165059 </v>
   <v>       0.06695993       0.13333333       0.46864267 </v>
   <v>       0.26666667       0.13333333       0.46834941 </v>
   <v>       0.46666667       0.13333333       0.46834941 </v>
   <v>       0.66666667       0.13333333       0.46834941 </v>
   <v>       0.86666667       0.13333333       0.46834941 </v>
   <v>       0.06666667       0.33333333       0.46834941 </v>
   <v>       0.26666667       0.33333333       0.46834941 </v>
   <v>       0.46666667       0.33333333       0.46834941 </v>
   <v>       0.66666667       0.33333333       0.46834941 </v>
   <v>       0.86666667       0.33333333       0.46834941 </v>
   <v>       0.06666667       0.53333333       0.46834941 </v>
   <v>       0.26666667       0.53333333       0.46834941 </v>
   <v>       0.46666667       0.53333333       0.46834941 </v>
   <v>       0.66666667       0.53333333       0.46834941 </v>
   <v>       0.86666667       0.53333333       0.46834941 </v>
   <v>       0.06666667       0.73333333       0.46834941 </v>
   <v>       0.26666667       0.73333333       0.46834941 </v>
   <v>       0.46666667       0.73333333       0.46834941 </v>
   <v>       0.66666667       0.73333333       0.46834941 </v>
   <v>       0.86666667       0.73333333       0.46834941 </v>
   <v>       0.06666667       0.93333333       0.46834941 </v>
   <v>       0.26666667       0.93333333       0.46834941 </v>
   <v>       0.46666667       0.93333333       0.46834941 </v>
   <v>       0.66666667       0.93333333       0.46834941 </v>
   <v>       0.86666667       0.93333333       0.46834941 </v>
  </varray>
 </structure>
</modeling>
