generated by phonopy
   1.0
    24.2102257072983278    0.0000000255759210   -0.0004334710355220
     0.0000000701233600   20.0794029300749699   -0.0000001417547150
    -0.0003860437464840   -0.0000001191623370   17.0942015038116715
Bi As
  30   30
Direct
  0.0550040142312392  0.1999999997642192  0.5415416288690569
  0.3883373475645724  0.1999999997642192  0.5415416288690569
  0.7216706808979059  0.1999999997642192  0.5415416288690568
  0.0550040142312392  0.3999999997642191  0.5415416288690568
  0.3883373475645725  0.3999999997642191  0.5415416288690569
  0.7216706808979056  0.3999999997642191  0.5415416288690568
  0.0550040142312392  0.5999999997642191  0.5415416288690568
  0.3883373475645724  0.5999999997642190  0.5415416288690569
  0.7216706808979058  0.5999999997642192  0.5415416288690568
  0.0550040142312391  0.7999999997642190  0.5415416288690568
  0.3883373475645724  0.7999999997642191  0.5415416288690569
  0.7216706808979059  0.7999999997642192  0.5415416288690568
  0.0550040142312392  0.9999999997642192  0.5415416288690568
  0.3883373475645724  0.9999999997642190  0.5415416288690569
  0.7216706808979058  0.9999999997642190  0.5415416288690568
  0.2216706808979058  0.0999999997642192  0.5415416288690569
  0.5550040142312391  0.0999999997642192  0.5415416288690568
  0.8883373475645723  0.0999999997642192  0.5415416288690569
  0.2216706808979058  0.2999999997642192  0.5415416288690569
  0.5550040142312391  0.2999999997642191  0.5415416288690568
  0.8883373475645723  0.2999999997642192  0.5415416288690569
  0.2216706808979058  0.4999999997642191  0.5415416288690569
  0.5550040142312391  0.4999999997642192  0.5415416288690568
  0.8883373475645724  0.4999999997642191  0.5415416288690569
  0.2216706808979058  0.6999999997642191  0.5415416288690569
  0.5550040142312391  0.6999999997642191  0.5415416288690568
  0.8883373475645724  0.6999999997642191  0.5415416288690569
  0.2216706808979058  0.8999999997642191  0.5415416288690569
  0.5550040142312391  0.8999999997642190  0.5415416288690568
  0.8883373475645724  0.8999999997642192  0.5415416288690569
  0.1116626524354275  0.1000000002357808  0.4578733774419885
  0.4449959857687608  0.1000000002357808  0.4584583711309432
  0.7783293191020940  0.1000000002357808  0.4584583711309432
  0.1116626524354275  0.3000000002357808  0.4584583711309432
  0.4449959857687608  0.3000000002357808  0.4584583711309432
  0.7783293191020941  0.3000000002357808  0.4584583711309432
  0.1116626524354275  0.5000000002357807  0.4584583711309432
  0.4449959857687608  0.5000000002357808  0.4584583711309432
  0.7783293191020941  0.5000000002357807  0.4584583711309432
  0.1116626524354275  0.7000000002357808  0.4584583711309432
  0.4449959857687608  0.7000000002357808  0.4584583711309432
  0.7783293191020941  0.7000000002357808  0.4584583711309432
  0.1116626524354275  0.9000000002357808  0.4584583711309432
  0.4449959857687608  0.9000000002357809  0.4584583711309432
  0.7783293191020940  0.9000000002357809  0.4584583711309432
  0.2783293191020941  0.0000000002357808  0.4584583711309432
  0.6116626524354275  0.0000000002357808  0.4584583711309432
  0.9449959857687608  0.0000000002357808  0.4584583711309432
  0.2783293191020941  0.2000000002357808  0.4584583711309432
  0.6116626524354274  0.2000000002357808  0.4584583711309432
  0.9449959857687608  0.2000000002357808  0.4584583711309431
  0.2783293191020942  0.4000000002357808  0.4584583711309432
  0.6116626524354274  0.4000000002357808  0.4584583711309431
  0.9449959857687608  0.4000000002357808  0.4584583711309431
  0.2783293191020941  0.6000000002357807  0.4584583711309431
  0.6116626524354274  0.6000000002357807  0.4584583711309431
  0.9449959857687608  0.6000000002357807  0.4584583711309432
  0.2783293191020941  0.8000000002357809  0.4584583711309431
  0.6116626524354275  0.8000000002357808  0.4584583711309432
  0.9449959857687608  0.8000000002357809  0.4584583711309432
