Buckled BiAs strained 16%
   1.00000000000000
     8.0700752357661099    0.0000000085253070   -0.0001444903451740
     0.0000000140246720    4.0158805860149940   -0.0000000283509430
    -0.0003860437464840   -0.0000001191623370   17.0942015038116715
   Bi   As
     2     2
Direct
  0.1650120426937175  0.9999999988210959  0.5415416288690568
  0.6650120426937174  0.4999999988210959  0.5415416288690568
  0.3349879573062826  0.5000000011789041  0.4584583711309431
  0.8349879573062826  0.0000000011789041  0.4584583711309431

  0.00000000E+00  0.00000000E+00  0.00000000E+00
  0.00000000E+00  0.00000000E+00  0.00000000E+00
  0.00000000E+00  0.00000000E+00  0.00000000E+00
  0.00000000E+00  0.00000000E+00  0.00000000E+00
