generated by phonopy
   1.0
    32.2803009430644394    0.0000000341012280   -0.0005779613806960
     0.0000000981727040   28.1111641021049579   -0.0000001984566010
    -0.0003860437464840   -0.0000001191623370   17.0942015038116715
Bi As
  56   56
Direct
  0.0412530106734294  0.1428571426887280  0.5415416288690568
  0.2912530106734293  0.1428571426887280  0.5415416288690568
  0.5412530106734293  0.1428571426887280  0.5415416288690568
  0.7912530106734293  0.1428571426887280  0.5415416288690568
  0.0412530106734294  0.2857142855458708  0.5415416288690568
  0.2912530106734293  0.2857142855458708  0.5415416288690568
  0.5412530106734293  0.2857142855458708  0.5415416288690568
  0.7912530106734293  0.2857142855458708  0.5415416288690568
  0.0412530106734294  0.4285714284030137  0.5415416288690568
  0.2912530106734293  0.4285714284030137  0.5415416288690568
  0.5412530106734293  0.4285714284030137  0.5415416288690568
  0.7912530106734293  0.4285714284030137  0.5415416288690568
  0.0412530106734294  0.5714285712601566  0.5415416288690568
  0.2912530106734293  0.5714285712601566  0.5415416288690568
  0.5412530106734293  0.5714285712601566  0.5415416288690568
  0.7912530106734293  0.5714285712601566  0.5415416288690568
  0.0412530106734294  0.7142857141172994  0.5415416288690568
  0.2912530106734293  0.7142857141172994  0.5415416288690568
  0.5412530106734293  0.7142857141172994  0.5415416288690568
  0.7912530106734293  0.7142857141172994  0.5415416288690568
  0.0412530106734294  0.8571428569744423  0.5415416288690568
  0.2912530106734293  0.8571428569744423  0.5415416288690568
  0.5412530106734293  0.8571428569744423  0.5415416288690568
  0.7912530106734293  0.8571428569744423  0.5415416288690568
  0.0412530106734294  0.9999999998315851  0.5415416288690568
  0.2912530106734293  0.9999999998315851  0.5415416288690568
  0.5412530106734293  0.9999999998315851  0.5415416288690568
  0.7912530106734293  0.9999999998315851  0.5415416288690568
  0.1662530106734293  0.0714285712601566  0.5415416288690568
  0.4162530106734293  0.0714285712601566  0.5415416288690568
  0.6662530106734293  0.0714285712601566  0.5415416288690568
  0.9162530106734293  0.0714285712601566  0.5415416288690568
  0.1662530106734293  0.2142857141172994  0.5415416288690568
  0.4162530106734293  0.2142857141172994  0.5415416288690568
  0.6662530106734293  0.2142857141172994  0.5415416288690568
  0.9162530106734293  0.2142857141172994  0.5415416288690568
  0.1662530106734293  0.3571428569744423  0.5415416288690568
  0.4162530106734293  0.3571428569744423  0.5415416288690568
  0.6662530106734293  0.3571428569744423  0.5415416288690568
  0.9162530106734293  0.3571428569744423  0.5415416288690568
  0.1662530106734293  0.4999999998315851  0.5415416288690568
  0.4162530106734293  0.4999999998315851  0.5415416288690568
  0.6662530106734293  0.4999999998315851  0.5415416288690568
  0.9162530106734293  0.4999999998315851  0.5415416288690568
  0.1662530106734293  0.6428571426887280  0.5415416288690568
  0.4162530106734293  0.6428571426887280  0.5415416288690568
  0.6662530106734293  0.6428571426887280  0.5415416288690568
  0.9162530106734293  0.6428571426887280  0.5415416288690568
  0.1662530106734293  0.7857142855458707  0.5415416288690568
  0.4162530106734293  0.7857142855458707  0.5415416288690568
  0.6662530106734293  0.7857142855458707  0.5415416288690568
  0.9162530106734293  0.7857142855458707  0.5415416288690568
  0.1662530106734293  0.9285714284030137  0.5415416288690568
  0.4162530106734293  0.9285714284030137  0.5415416288690568
  0.6662530106734293  0.9285714284030137  0.5415416288690568
  0.9162530106734293  0.9285714284030137  0.5415416288690568
  0.0837469893265707  0.0714285715969863  0.4584583711309431
  0.3337469893265707  0.0714285715969863  0.4584583711309431
  0.5837469893265707  0.0714285715969863  0.4584583711309431
  0.8337469893265707  0.0714285715969863  0.4584583711309431
  0.0837469893265707  0.2142857144541291  0.4584583711309431
  0.3337469893265707  0.2142857144541291  0.4584583711309431
  0.5837469893265707  0.2142857144541291  0.4584583711309431
  0.8337469893265707  0.2142857144541291  0.4584583711309431
  0.0837469893265707  0.3571428573112720  0.4584583711309431
  0.3337469893265707  0.3571428573112720  0.4584583711309431
  0.5837469893265707  0.3571428573112720  0.4584583711309431
  0.8337469893265707  0.3571428573112720  0.4584583711309431
  0.0837469893265707  0.5000000001684148  0.4584583711309431
  0.3337469893265707  0.5000000001684148  0.4584583711309431
  0.5837469893265707  0.5000000001684148  0.4584583711309431
  0.8337469893265707  0.5000000001684148  0.4584583711309431
  0.0837469893265707  0.6428571430255577  0.4584583711309431
  0.3337469893265707  0.6428571430255577  0.4584583711309431
  0.5837469893265707  0.6428571430255577  0.4584583711309431
  0.8337469893265707  0.6428571430255577  0.4584583711309431
  0.0837469893265707  0.7857142858827005  0.4584583711309431
  0.3337469893265707  0.7857142858827005  0.4584583711309431
  0.5837469893265707  0.7857142858827005  0.4584583711309431
  0.8337469893265707  0.7857142858827005  0.4584583711309431
  0.0837469893265707  0.9285714287398434  0.4584583711309431
  0.3337469893265707  0.9285714287398434  0.4584583711309431
  0.5837469893265707  0.9285714287398434  0.4584583711309431
  0.8337469893265707  0.9285714287398434  0.4584583711309431
  0.2087469893265707  0.0000000001684149  0.4584583711309431
  0.4587469893265707  0.0000000001684149  0.4584583711309431
  0.7087469893265707  0.0000000001684149  0.4584583711309431
  0.9587469893265707  0.0000000001684149  0.4584583711309431
  0.2087469893265707  0.1428571430255577  0.4584583711309431
  0.4587469893265707  0.1428571430255577  0.4584583711309431
  0.7087469893265707  0.1428571430255577  0.4584583711309431
  0.9587469893265707  0.1428571430255577  0.4584583711309431
  0.2087469893265707  0.2857142858827006  0.4584583711309431
  0.4587469893265707  0.2857142858827006  0.4584583711309431
  0.7087469893265707  0.2857142858827006  0.4584583711309431
  0.9587469893265707  0.2857142858827006  0.4584583711309431
  0.2087469893265707  0.4285714287398434  0.4584583711309431
  0.4587469893265707  0.4285714287398434  0.4584583711309431
  0.7087469893265707  0.4285714287398434  0.4584583711309431
  0.9587469893265707  0.4285714287398434  0.4584583711309431
  0.2087469893265707  0.5714285715969862  0.4584583711309431
  0.4587469893265707  0.5714285715969862  0.4584583711309431
  0.7087469893265707  0.5714285715969862  0.4584583711309431
  0.9587469893265707  0.5714285715969862  0.4584583711309431
  0.2087469893265707  0.7142857144541291  0.4584583711309431
  0.4587469893265707  0.7142857144541291  0.4584583711309431
  0.7087469893265707  0.7142857144541291  0.4584583711309431
  0.9587469893265707  0.7142857144541291  0.4584583711309431
  0.2087469893265707  0.8571428573112719  0.4584583711309431
  0.4587469893265707  0.8571428573112719  0.4584583711309431
  0.7087469893265707  0.8571428573112719  0.4584583711309431
  0.9587469893265707  0.8571428573112719  0.4584583711309431
