generated by phonopy
   1.0
    21.3246572617637362   -0.0000000000000010    0.0000000000000000
   -10.6623286308818681   18.4676949156886607    0.0000000000000000
     0.0000000000000000    0.0000000000000005   26.6085525739213189
Bi Sb
  25   25
Direct
  0.1330400712682884  0.0666666665999998  0.5313573264184025
  0.3333333331999995  0.0666666665999998  0.5316505883501136
  0.5333333331999994  0.0666666665999997  0.5316505883501136
  0.7333333331999996  0.0666666665999997  0.5316505883501136
  0.9333333331999994  0.0666666665999997  0.5316505883501136
  0.1333333331999995  0.2666666665999998  0.5316505883501136
  0.3333333331999995  0.2666666665999998  0.5316505883501136
  0.5333333331999994  0.2666666665999998  0.5316505883501136
  0.7333333331999996  0.2666666665999997  0.5316505883501136
  0.9333333331999994  0.2666666665999998  0.5316505883501136
  0.1333333331999995  0.4666666665999998  0.5316505883501136
  0.3333333331999995  0.4666666665999998  0.5316505883501136
  0.5333333331999995  0.4666666665999998  0.5316505883501136
  0.7333333331999996  0.4666666665999998  0.5316505883501136
  0.9333333331999993  0.4666666665999998  0.5316505883501136
  0.1333333331999995  0.6666666665999998  0.5316505883501136
  0.3333333331999995  0.6666666665999998  0.5316505883501136
  0.5333333331999994  0.6666666665999998  0.5316505883501136
  0.7333333331999996  0.6666666665999998  0.5316505883501136
  0.9333333331999994  0.6666666665999998  0.5316505883501136
  0.1333333331999995  0.8666666665999998  0.5316505883501136
  0.3333333331999995  0.8666666665999997  0.5316505883501136
  0.5333333331999994  0.8666666665999997  0.5316505883501136
  0.7333333331999995  0.8666666665999997  0.5316505883501136
  0.9333333331999994  0.8666666665999997  0.5316505883501136
  0.0666666665999998  0.1333333331999995  0.4683494116498864
  0.2666666665999998  0.1333333331999995  0.4683494116498864
  0.4666666665999997  0.1333333331999995  0.4683494116498864
  0.6666666665999998  0.1333333331999995  0.4683494116498864
  0.8666666665999997  0.1333333331999995  0.4683494116498864
  0.0666666665999998  0.3333333331999995  0.4683494116498864
  0.2666666665999998  0.3333333331999995  0.4683494116498864
  0.4666666665999997  0.3333333331999995  0.4683494116498864
  0.6666666665999998  0.3333333331999995  0.4683494116498864
  0.8666666665999997  0.3333333331999995  0.4683494116498864
  0.0666666665999998  0.5333333331999995  0.4683494116498864
  0.2666666665999997  0.5333333331999995  0.4683494116498864
  0.4666666665999997  0.5333333331999995  0.4683494116498864
  0.6666666665999998  0.5333333331999995  0.4683494116498864
  0.8666666665999996  0.5333333331999995  0.4683494116498864
  0.0666666665999997  0.7333333331999995  0.4683494116498864
  0.2666666665999997  0.7333333331999996  0.4683494116498864
  0.4666666665999997  0.7333333331999996  0.4683494116498864
  0.6666666665999998  0.7333333331999996  0.4683494116498864
  0.8666666665999997  0.7333333331999996  0.4683494116498864
  0.0666666665999998  0.9333333331999994  0.4683494116498864
  0.2666666665999997  0.9333333331999996  0.4683494116498864
  0.4666666665999997  0.9333333331999996  0.4683494116498864
  0.6666666665999998  0.9333333331999996  0.4683494116498864
  0.8666666665999997  0.9333333331999996  0.4683494116498864
