<?xml version="1.0" encoding="ISO-8859-1"?>
<modeling>
 <generator>
  <i name="program" type="string">vasp </i>
  <i name="version" type="string">6.4.3  </i>
  <i name="subversion" type="string">19Mar24 (build Jan 17 2026 20:14:01) complex                          parallel </i>
  <i name="platform" type="string">LinuxIFC </i>
  <i name="date" type="string">2026 01 24 </i>
  <i name="time" type="string">17:32:19 </i>
 </generator>
 <incar>
  <i type="string" name="PREC">Accurate</i>
  <i type="logical" name="LSORBIT"> T  </i>
  <i type="int" name="IBRION">     8</i>
  <i name="EDIFF">      0.00000010</i>
  <i type="int" name="NSW">     1</i>
  <i type="int" name="ISYM">     0</i>
  <i name="ENCUT">    320.00000000</i>
  <v name="MAGMOM">      0.00000000      0.00000000      0.00000000      0.00000000      0.00000000      0.00000000      0.00000000      0.00000000      0.00000000      0.00000000      0.00000000      0.00000000      0.00000000      0.00000000      0.00000000      0.00000000      0.00000000      0.00000000      0.00000000      0.00000000
      0.00000000      0.00000000      0.00000000      0.00000000      0.00000000      0.00000000      0.00000000      0.00000000      0.00000000      0.00000000      0.00000000      0.00000000      0.00000000      0.00000000      0.00000000      0.00000000      0.00000000      0.00000000      0.00000000      0.00000000
      0.00000000      0.00000000      0.00000000      0.00000000      0.00000000      0.00000000      0.00000000      0.00000000      0.00000000      0.00000000      0.00000000      0.00000000      0.00000000      0.00000000      0.00000000      0.00000000      0.00000000      0.00000000      0.00000000      0.00000000
      0.00000000      0.00000000      0.00000000      0.00000000      0.00000000      0.00000000      0.00000000      0.00000000      0.00000000      0.00000000      0.00000000      0.00000000</v>
  <i type="logical" name="LREAL"> F  </i>
  <i type="int" name="ISMEAR">     0</i>
  <i name="SIGMA">      0.05000000</i>
  <i type="logical" name="LWAVE"> F  </i>
 </incar>
 <primitive_cell>
  <structure name="primitive_cell" >
   <crystal>
    <varray name="basis" >
     <v>      14.79171371       0.00000000       0.00000000 </v>
     <v>       0.00000000      12.78000069       0.00000000 </v>
     <v>       0.00000000       0.00000000      17.00000000 </v>
    </varray>
    <i name="volume">   3213.64789431 </i>
    <varray name="rec_basis" >
     <v>       0.06760542       0.00000000       0.00000000 </v>
     <v>       0.00000000       0.07824726       0.00000000 </v>
     <v>       0.00000000       0.00000000       0.05882353 </v>
    </varray>
   </crystal>
   <varray name="positions" >
    <v>       0.08333333       0.00000000       0.55000000 </v>
    <v>       0.58333333       0.00000000       0.55000000 </v>
    <v>       0.08333333       0.33333333       0.55000000 </v>
    <v>       0.58333333       0.33333333       0.55000000 </v>
    <v>       0.08333333       0.66666667       0.55000000 </v>
    <v>       0.58333333       0.66666667       0.55000000 </v>
    <v>       0.33333333       0.16666667       0.55000000 </v>
    <v>       0.83333333       0.16666667       0.55000000 </v>
    <v>       0.33333333       0.50000000       0.55000000 </v>
    <v>       0.83333333       0.50000000       0.55000000 </v>
    <v>       0.33333333       0.83333333       0.55000000 </v>
    <v>       0.83333333       0.83333333       0.55000000 </v>
    <v>       0.16666667       0.16666667       0.45000000 </v>
    <v>       0.66666667       0.16666667       0.45000000 </v>
    <v>       0.16666667       0.50000000       0.45000000 </v>
    <v>       0.66666667       0.50000000       0.45000000 </v>
    <v>       0.16666667       0.83333333       0.45000000 </v>
    <v>       0.66666667       0.83333333       0.45000000 </v>
    <v>       0.41666667       0.00000000       0.45000000 </v>
    <v>       0.91666667       0.00000000       0.45000000 </v>
    <v>       0.41666667       0.33333333       0.45000000 </v>
    <v>       0.91666667       0.33333333       0.45000000 </v>
    <v>       0.41666667       0.66666667       0.45000000 </v>
    <v>       0.91666667       0.66666667       0.45000000 </v>
   </varray>
  </structure>
  <varray name="primitive_index" >
   <v type="int" >        1 </v>
   <v type="int" >        2 </v>
   <v type="int" >        3 </v>
   <v type="int" >        4 </v>
   <v type="int" >        5 </v>
   <v type="int" >        6 </v>
   <v type="int" >        7 </v>
   <v type="int" >        8 </v>
   <v type="int" >        9 </v>
   <v type="int" >       10 </v>
   <v type="int" >       11 </v>
   <v type="int" >       12 </v>
   <v type="int" >       13 </v>
   <v type="int" >       14 </v>
   <v type="int" >       15 </v>
   <v type="int" >       16 </v>
   <v type="int" >       17 </v>
   <v type="int" >       18 </v>
   <v type="int" >       19 </v>
   <v type="int" >       20 </v>
   <v type="int" >       21 </v>
   <v type="int" >       22 </v>
   <v type="int" >       23 </v>
   <v type="int" >       24 </v>
  </varray>
 </primitive_cell>
 <kpoints>
  <generation param="Monkhorst-Pack">
   <v type="int" name="divisions">       2        3        1 </v>
   <v name="usershift">      0.00000000       0.00000000       0.00000000 </v>
   <v name="genvec1">      0.50000000       0.00000000       0.00000000 </v>
   <v name="genvec2">      0.00000000       0.33333333       0.00000000 </v>
   <v name="genvec3">      0.00000000       0.00000000       1.00000000 </v>
   <v name="shift">      0.50000000       0.00000000       0.00000000 </v>
  </generation>
  <varray name="kpointlist" >
   <v>       0.25000000       0.00000000       0.00000000 </v>
   <v>      -0.25000000       0.00000000       0.00000000 </v>
   <v>       0.25000000       0.33333333       0.00000000 </v>
   <v>      -0.25000000      -0.33333333       0.00000000 </v>
   <v>      -0.25000000       0.33333333       0.00000000 </v>
   <v>       0.25000000      -0.33333333       0.00000000 </v>
  </varray>
  <varray name="weights" >
   <v>       0.16666667 </v>
   <v>       0.16666667 </v>
   <v>       0.16666667 </v>
   <v>       0.16666667 </v>
   <v>       0.16666667 </v>
   <v>       0.16666667 </v>
  </varray>
 </kpoints>
 <parameters>
  <separator name="general" >
   <i type="string" name="SYSTEM">unknown system</i>
   <i type="logical" name="LCOMPAT"> F  </i>
  </separator>
  <separator name="electronic" >
   <i type="string" name="PREC">accura</i>
   <i name="ENMAX">    320.00000000</i>
   <i name="ENAUG">    442.89900000</i>
   <i name="EDIFF">      0.00000010</i>
   <i type="int" name="IALGO">    38</i>
   <i type="int" name="IWAVPR">    11</i>
   <i type="int" name="NBANDS">   297</i>
   <i type="int" name="NBANDSLOW">    -1</i>
   <i type="int" name="NBANDSHIGH">    -1</i>
   <i name="NELECT">    240.00000000</i>
   <i type="int" name="TURBO">     0</i>
   <i type="int" name="IRESTART">     0</i>
   <i type="int" name="NREBOOT">     0</i>
   <i type="int" name="NMIN">     0</i>
   <i name="EREF">      0.00000000</i>
   <separator name="electronic smearing" >
    <i type="int" name="ISMEAR">     0</i>
    <i name="SIGMA">      0.05000000</i>
    <i name="KSPACING">      0.50000000</i>
    <i type="logical" name="KGAMMA"> T  </i>
    <i type="logical" name="KBLOWUP"> T  </i>
   </separator>
   <separator name="electronic projectors" >
    <i type="logical" name="LREAL"> F  </i>
    <v name="ROPT">      0.00000000      0.00000000</v>
    <i type="int" name="LMAXPAW">  -100</i>
    <i type="int" name="LMAXMIX">     2</i>
    <i type="logical" name="NLSPLINE"> F  </i>
   </separator>
   <separator name="electronic startup" >
    <i type="int" name="ISTART">     0</i>
    <i type="int" name="ICHARG">     2</i>
    <i type="int" name="INIWAV">     1</i>
   </separator>
   <separator name="electronic spin" >
    <i type="int" name="ISPIN">     1</i>
    <i type="logical" name="LNONCOLLINEAR"> T  </i>
    <v name="MAGMOM">      0.00000000      0.00000000      0.00000000      0.00000000      0.00000000      0.00000000      0.00000000      0.00000000      0.00000000      0.00000000      0.00000000      0.00000000      0.00000000      0.00000000      0.00000000      0.00000000      0.00000000      0.00000000      0.00000000      0.00000000
      0.00000000      0.00000000      0.00000000      0.00000000      0.00000000      0.00000000      0.00000000      0.00000000      0.00000000      0.00000000      0.00000000      0.00000000      0.00000000      0.00000000      0.00000000      0.00000000      0.00000000      0.00000000      0.00000000      0.00000000
      0.00000000      0.00000000      0.00000000      0.00000000      0.00000000      0.00000000      0.00000000      0.00000000      0.00000000      0.00000000      0.00000000      0.00000000      0.00000000      0.00000000      0.00000000      0.00000000      0.00000000      0.00000000      0.00000000      0.00000000
      0.00000000      0.00000000      0.00000000      0.00000000      0.00000000      0.00000000      0.00000000      0.00000000      0.00000000      0.00000000      0.00000000      0.00000000</v>
    <i name="NUPDOWN">     -1.00000000</i>
    <i type="logical" name="LSORBIT"> T  </i>
    <v name="SAXIS">      0.00000000      0.00000000      1.00000000</v>
    <i type="logical" name="LSPIRAL"> F  </i>
    <v name="QSPIRAL">      0.00000000      0.00000000      0.00000000</v>
    <i type="logical" name="LZEROZ"> F  </i>
   </separator>
   <separator name="electronic exchange-correlation" >
    <i type="logical" name="LASPH"> F  </i>
   </separator>
   <separator name="electronic convergence" >
    <i type="int" name="NELM">    60</i>
    <i type="int" name="NELMDL">    -5</i>
    <i type="int" name="NELMIN">     2</i>
    <i name="ENINI">    320.00000000</i>
    <separator name="electronic convergence detail" >
     <i type="logical" name="LDIAG"> T  </i>
     <i type="logical" name="LSUBROT"> F  </i>
     <i name="WEIMIN">      0.00100000</i>
     <i name="EBREAK">      0.00000000</i>
     <i name="DEPER">      0.30000000</i>
     <i type="int" name="NRMM">     4</i>
     <i name="TIME">      0.40000000</i>
    </separator>
   </separator>
   <separator name="electronic mixer" >
    <i name="AMIX">      0.40000000</i>
    <i name="BMIX">      1.00000000</i>
    <i name="AMIN">      0.10000000</i>
    <i name="AMIX_MAG">      1.60000000</i>
    <i name="BMIX_MAG">      1.00000000</i>
    <separator name="electronic mixer details" >
     <i type="int" name="IMIX">     4</i>
     <i type="logical" name="MIXFIRST"> F  </i>
     <i type="int" name="MAXMIX">   -45</i>
     <i name="WC">    100.00000000</i>
     <i type="int" name="INIMIX">     1</i>
     <i type="int" name="MIXPRE">     1</i>
     <i type="int" name="MREMOVE">     5</i>
    </separator>
   </separator>
   <separator name="electronic dipolcorrection" >
    <i type="logical" name="LDIPOL"> F  </i>
    <i type="logical" name="LMONO"> F  </i>
    <i type="int" name="IDIPOL">     0</i>
    <i name="EPSILON">      1.00000000</i>
    <v name="DIPOL">   -100.00000000   -100.00000000   -100.00000000</v>
    <i name="EFIELD">      0.00000000</i>
    <i type="logical" name="LVACPOTAV"> F  </i>
   </separator>
  </separator>
  <separator name="grids" >
   <i type="int" name="NGX">    90</i>
   <i type="int" name="NGY">    80</i>
   <i type="int" name="NGZ">   100</i>
   <i type="int" name="NGXF">   180</i>
   <i type="int" name="NGYF">   160</i>
   <i type="int" name="NGZF">   200</i>
   <i type="logical" name="ADDGRID"> F  </i>
  </separator>
  <separator name="ionic" >
   <i type="int" name="NSW">     1</i>
   <i type="int" name="IBRION">     8</i>
   <i type="int" name="MDALGO">     0</i>
   <i type="int" name="ISIF">     2</i>
   <i name="PSTRESS">      0.00000000</i>
   <i name="EDIFFG">      0.00000100</i>
   <i type="int" name="NFREE">     0</i>
   <i name="POTIM">      0.50000000</i>
   <i name="SMASS">     -3.00000000</i>
   <i name="SCALEE">      1.00000000</i>
  </separator>
  <separator name="ionic md" >
   <i name="TEBEG">      0.00010000</i>
   <i name="TEEND">      0.00010000</i>
   <i type="int" name="NBLOCK">     1</i>
   <i type="int" name="KBLOCK">     1</i>
   <i type="int" name="NPACO">   256</i>
   <i name="APACO">     10.00000000</i>
  </separator>
  <separator name="symmetry" >
   <i type="int" name="ISYM">     0</i>
   <i name="SYMPREC">      0.00001000</i>
  </separator>
  <separator name="dos" >
   <i type="int" name="LORBIT">     0</i>
   <v name="RWIGS">     -1.00000000     -1.00000000</v>
   <i type="int" name="NEDOS">   301</i>
   <i name="EMIN">     10.00000000</i>
   <i name="EMAX">    -10.00000000</i>
   <i name="EFERMI">      0.00000000</i>
  </separator>
  <separator name="writing" >
   <i type="int" name="NWRITE">     2</i>
   <i type="logical" name="LWAVE"> F  </i>
   <i type="logical" name="LDOWNSAMPLE"> F  </i>
   <i type="logical" name="LCHARG"> T  </i>
   <i type="logical" name="LPARD"> F  </i>
   <i type="logical" name="LVTOT"> F  </i>
   <i type="logical" name="LVHAR"> F  </i>
   <i type="logical" name="LELF"> F  </i>
   <i type="logical" name="LOPTICS"> F  </i>
   <v name="STM">      0.00000000      0.00000000      0.00000000      0.00000000      0.00000000      0.00000000      0.00000000</v>
  </separator>
  <separator name="performance" >
   <i type="int" name="NPAR">    11</i>
   <i type="int" name="NSIM">     4</i>
   <i type="int" name="NBLK">    -1</i>
   <i type="logical" name="LPLANE"> T  </i>
   <i type="logical" name="LSCALAPACK"> T  </i>
   <i type="logical" name="LSCAAWARE"> F  </i>
   <i type="logical" name="LSCALU"> F  </i>
   <i type="logical" name="LASYNC"> F  </i>
   <i type="logical" name="LORBITALREAL"> F  </i>
  </separator>
  <separator name="miscellaneous" >
   <i type="int" name="IDIOT">     3</i>
   <i type="int" name="PHON_NSTRUCT">    -1</i>
   <i type="logical" name="LMUSIC"> F  </i>
   <v name="POMASS">    208.98000000    121.75000000</v>
   <v name="DARWINR">      0.00000000      0.00000000</v>
   <v name="DARWINV">      1.00000000      1.00000000</v>
   <i type="logical" name="LCORR"> T  </i>
  </separator>
  <i type="logical" name="GGA_COMPAT"> T  </i>
  <i type="logical" name="LBERRY"> F  </i>
  <i type="int" name="ICORELEVEL">     0</i>
  <i type="logical" name="LDAU"> F  </i>
  <i type="int" name="I_CONSTRAINED_M">     0</i>
  <separator name="electronic exchange-correlation" >
   <i type="string" name="GGA    ">PE</i>
   <i type="string" name="XC_C">1</i>
   <i type="int" name="VOSKOWN">     0</i>
   <i type="logical" name="LHFCALC"> F  </i>
   <i type="string" name="PRECFOCK"></i>
   <i type="logical" name="LSYMGRAD"> F  </i>
   <i type="logical" name="LHFONE"> F  </i>
   <i type="logical" name="LRHFCALC"> F  </i>
   <i type="logical" name="LTHOMAS"> F  </i>
   <i type="logical" name="LMODELHF"> F  </i>
   <i type="logical" name="LFOCKACE"> F  </i>
   <i name="ENCUT4O">     -1.00000000</i>
   <i type="int" name="EXXOEP">     0</i>
   <i type="int" name="FOURORBIT">     0</i>
   <i name="AEXX">      0.00000000</i>
   <i name="HFALPHA">      0.00000000</i>
   <i name="MCALPHA">      0.00000000</i>
   <i name="ALDAX">      1.00000000</i>
   <i name="AGGAX">      1.00000000</i>
   <i name="AMGGAX">      1.00000000</i>
   <i name="ALDAC">      1.00000000</i>
   <i name="AGGAC">      1.00000000</i>
   <i name="AMGGAC">      1.00000000</i>
   <i type="int" name="NKREDX">     1</i>
   <i type="int" name="NKREDY">     1</i>
   <i type="int" name="NKREDZ">     1</i>
   <i type="logical" name="SHIFTRED"> F  </i>
   <i type="logical" name="ODDONLY"> F  </i>
   <i type="logical" name="EVENONLY"> F  </i>
   <i type="int" name="LMAXFOCK">     0</i>
   <i type="int" name="NMAXFOCKAE">     0</i>
   <i type="logical" name="LFOCKAEDFT"> F  </i>
   <i name="HFSCREEN">      0.00000000</i>
   <i name="HFSCREENC">      0.00000000</i>
   <i type="int" name="NBANDSGWLOW">     0</i>
  </separator>
  <separator name="vdW DFT" >
   <i type="logical" name="LUSE_VDW"> F  </i>
   <i type="int" name="IVDW_NL">    -1</i>
   <i type="logical" name="LSPIN_VDW"> F  </i>
   <i name="ZAB_VDW">     -0.84910000</i>
   <i name="GAMMA_VDW">      1.39626340</i>
   <i name="ALPHA_VDW">      0.00000000</i>
   <i name="PARAM1">      0.12340000</i>
   <i name="PARAM2">      1.00000000</i>
   <i name="BPARAM">      6.30000000</i>
   <i name="CPARAM">      0.00930000</i>
  </separator>
  <separator name="model GW" >
   <i type="int" name="MODEL_GW">     0</i>
   <i name="MODEL_EPS0">     80.34119736</i>
   <i name="MODEL_ALPHA">      1.00000000</i>
  </separator>
  <separator name="linear response parameters" >
   <i type="logical" name="LEPSILON"> F  </i>
   <i type="logical" name="LRPA"> F  </i>
   <i type="logical" name="LNABLA"> F  </i>
   <i type="logical" name="LVEL"> F  </i>
   <i name="CSHIFT">      0.10000000</i>
   <i name="OMEGAMAX">     -1.00000000</i>
   <i name="DEG_THRESHOLD">      0.00200000</i>
   <i name="RTIME">     -0.10000000</i>
   <i name="WPLASMAI">      0.00000000</i>
   <v name="DFIELD">      0.00000000      0.00000000      0.00000000</v>
   <v name="WPLASMA">      0.00000000      0.00000000      0.00000000      0.00000000      0.00000000      0.00000000      0.00000000      0.00000000      0.00000000</v>
  </separator>
  <separator name="orbital magnetization" >
   <i type="logical" name="NUCIND"> F  </i>
   <v name="MAGPOS">      0.00000000      0.00000000      0.00000000</v>
   <i type="logical" name="LNICSALL"> T  </i>
   <i type="logical" name="ORBITALMAG"> F  </i>
   <i type="logical" name="LMAGBLOCH"> F  </i>
   <i type="logical" name="LCHIMAG"> F  </i>
   <i type="logical" name="LGAUGE"> T  </i>
   <i type="int" name="MAGATOM">     0</i>
   <v name="MAGDIPOL">      0.00000000      0.00000000      0.00000000</v>
   <v name="AVECCONST">      0.00000000      0.00000000      0.00000000</v>
  </separator>
  <separator name="response functions" >
   <i type="logical" name="LALL_IN_ONE"> F  </i>
   <i type="int" name="IALL_IN_ONE">    -1</i>
   <i type="int" name="NBANDS_WAVE">    -1</i>
   <i type="logical" name="LFINITE_TEMPERATURE"> F  </i>
   <i type="logical" name="LADDER"> F  </i>
   <i type="logical" name="LRPAFORCE"> F  </i>
   <i type="logical" name="LFXC"> F  </i>
   <i type="logical" name="LHARTREE"> T  </i>
   <i type="int" name="IBSE">     0</i>
   <v type="int" name="KPOINT">    -1     0     0     0</v>
   <i type="logical" name="LTCTC"> F  </i>
   <i type="logical" name="LTCTE"> F  </i>
   <i type="logical" name="LTETE"> F  </i>
   <i type="logical" name="LTRIPLET"> F  </i>
   <i type="logical" name="LFXCEPS"> F  </i>
   <i type="logical" name="LFXHEG"> F  </i>
   <i type="int" name="NATURALO">     2</i>
   <i type="logical" name="LHOLEGF"> F  </i>
   <i type="logical" name="L2ORDER"> F  </i>
   <i type="logical" name="LDMP1"> F  </i>
   <i type="logical" name="LMP2LT"> F  </i>
   <i type="logical" name="LSMP2LT"> F  </i>
   <i type="logical" name="LGWLF"> F  </i>
   <i name="ENCUTGW">     -1.60000002</i>
   <i name="ENCUTGWSOFT">     -1.60000002</i>
   <i name="ENCUTLF">     -1.00000000</i>
   <i type="logical" name="ESF_SPLINES"> F  </i>
   <i name="ESF_CONV">      0.01000000</i>
   <i type="int" name="ESF_NINTER">    15</i>
   <i type="int" name="LMAXMP2">    -1</i>
   <i name="SCISSOR">      0.00000000</i>
   <i type="int" name="NOMEGA">     0</i>
   <i type="int" name="NOMEGAR">     0</i>
   <i type="int" name="NBANDSGW">    -1</i>
   <i type="int" name="NBANDSO">    -1</i>
   <i type="int" name="NBANDSV">    -1</i>
   <i type="int" name="NELMGW">     1</i>
   <i type="int" name="NELMHF">     1</i>
   <i type="int" name="DIM">     3</i>
   <i type="int" name="IESPILON">     4</i>
   <i type="int" name="ANTIRES">     0</i>
   <i name="OMEGAMAX">    -30.00000000</i>
   <i name="OMEGAMIN">    -30.00000000</i>
   <i name="OMEGATL">   -200.00000000</i>
   <i type="int" name="OMEGAGRID">     0</i>
   <i name="CSHIFT">     -0.10000000</i>
   <i type="logical" name="LSELFENERGY"> F  </i>
   <i type="logical" name="LSPECTRAL"> F  </i>
   <i type="logical" name="LSPECTRALGW"> F  </i>
   <i type="logical" name="LSINGLES"> F  </i>
   <i type="logical" name="LFERMIGW"> F  </i>
   <i type="logical" name="ODDONLYGW"> F  </i>
   <i type="logical" name="EVENONLYGW"> F  </i>
   <i type="int" name="NKREDLFX">     1</i>
   <i type="int" name="NKREDLFY">     1</i>
   <i type="int" name="NKREDLFZ">     1</i>
   <i type="int" name="MAXMEM">  2800</i>
   <i type="int" name="TELESCOPE">     0</i>
   <i type="int" name="NTAUPAR">    -1</i>
   <i type="int" name="NOMEGAPAR">    -1</i>
   <i name="DAMP_NEWTON">      0.80000001</i>
   <i name="LAMBDA">      1.00000000</i>
  </separator>
  <separator name="External order field" >
   <i name="OFIELD_KAPPA">      0.00000000</i>
   <v name="OFIELD_K">      0.00000000      0.00000000      0.00000000</v>
   <i name="OFIELD_Q6_NEAR">      0.00000000</i>
   <i name="OFIELD_Q6_FAR">      0.00000000</i>
   <i name="OFIELD_A">      0.00000000</i>
  </separator>
  <separator name="optional k-points parameters" >
   <i type="int" name="KPOINTS_OPT_MODE">     1</i>
   <i type="logical" name="LKPOINTS_OPT"> F  </i>
  </separator>
 </parameters>
 <atominfo>
  <atoms>      24 </atoms>
  <types>       2 </types>
  <array name="atoms" >
   <dimension dim="1">ion</dimension>
   <field type="string">element</field>
   <field type="int">atomtype</field>
   <set>
    <rc><c>Bi</c><c>   1</c></rc>
    <rc><c>Bi</c><c>   1</c></rc>
    <rc><c>Bi</c><c>   1</c></rc>
    <rc><c>Bi</c><c>   1</c></rc>
    <rc><c>Bi</c><c>   1</c></rc>
    <rc><c>Bi</c><c>   1</c></rc>
    <rc><c>Bi</c><c>   1</c></rc>
    <rc><c>Bi</c><c>   1</c></rc>
    <rc><c>Bi</c><c>   1</c></rc>
    <rc><c>Bi</c><c>   1</c></rc>
    <rc><c>Bi</c><c>   1</c></rc>
    <rc><c>Bi</c><c>   1</c></rc>
    <rc><c>Sb</c><c>   2</c></rc>
    <rc><c>Sb</c><c>   2</c></rc>
    <rc><c>Sb</c><c>   2</c></rc>
    <rc><c>Sb</c><c>   2</c></rc>
    <rc><c>Sb</c><c>   2</c></rc>
    <rc><c>Sb</c><c>   2</c></rc>
    <rc><c>Sb</c><c>   2</c></rc>
    <rc><c>Sb</c><c>   2</c></rc>
    <rc><c>Sb</c><c>   2</c></rc>
    <rc><c>Sb</c><c>   2</c></rc>
    <rc><c>Sb</c><c>   2</c></rc>
    <rc><c>Sb</c><c>   2</c></rc>
   </set>
  </array>
  <array name="atomtypes" >
   <dimension dim="1">type</dimension>
   <field type="int">atomspertype</field>
   <field type="string">element</field>
   <field>mass</field>
   <field>valence</field>
   <field type="string">pseudopotential</field>
   <set>
    <rc><c>  12</c><c>Bi</c><c>    208.98000000</c><c>     15.00000000</c><c> PAW_PBE Bi_d 06Sep2000                 </c></rc>
    <rc><c>  12</c><c>Sb</c><c>    121.75000000</c><c>      5.00000000</c><c> PAW_PBE Sb 06Sep2000                   </c></rc>
   </set>
  </array>
 </atominfo>
 <structure name="initialpos" >
  <crystal>
   <varray name="basis" >
    <v>      14.79171371       0.00000000       0.00000000 </v>
    <v>       0.00000000      12.78000069       0.00000000 </v>
    <v>       0.00000000       0.00000000      17.00000000 </v>
   </varray>
   <i name="volume">   3213.64789431 </i>
   <varray name="rec_basis" >
    <v>       0.06760542       0.00000000       0.00000000 </v>
    <v>       0.00000000       0.07824726       0.00000000 </v>
    <v>       0.00000000       0.00000000       0.05882353 </v>
   </varray>
  </crystal>
  <varray name="positions" >
   <v>       0.08333333       0.00000000       0.55000000 </v>
   <v>       0.58333333       0.00000000       0.55000000 </v>
   <v>       0.08333333       0.33333333       0.55000000 </v>
   <v>       0.58333333       0.33333333       0.55000000 </v>
   <v>       0.08333333       0.66666667       0.55000000 </v>
   <v>       0.58333333       0.66666667       0.55000000 </v>
   <v>       0.33333333       0.16666667       0.55000000 </v>
   <v>       0.83333333       0.16666667       0.55000000 </v>
   <v>       0.33333333       0.50000000       0.55000000 </v>
   <v>       0.83333333       0.50000000       0.55000000 </v>
   <v>       0.33333333       0.83333333       0.55000000 </v>
   <v>       0.83333333       0.83333333       0.55000000 </v>
   <v>       0.16666667       0.16666667       0.45000000 </v>
   <v>       0.66666667       0.16666667       0.45000000 </v>
   <v>       0.16666667       0.50000000       0.45000000 </v>
   <v>       0.66666667       0.50000000       0.45000000 </v>
   <v>       0.16666667       0.83333333       0.45000000 </v>
   <v>       0.66666667       0.83333333       0.45000000 </v>
   <v>       0.41666667       0.00000000       0.45000000 </v>
   <v>       0.91666667       0.00000000       0.45000000 </v>
   <v>       0.41666667       0.33333333       0.45000000 </v>
   <v>       0.91666667       0.33333333       0.45000000 </v>
   <v>       0.41666667       0.66666667       0.45000000 </v>
   <v>       0.91666667       0.66666667       0.45000000 </v>
  </varray>
 </structure>
 <calculation>
  <scstep>
   <time name="dav">    7.75    7.83</time>
   <time name="total">    7.90    7.99</time>
   <energy>
    <i name="alphaZ">     91.37721320 </i>
    <i name="ewald">   9356.30400577 </i>
    <i name="hartreedc"> -32057.48729636 </i>
    <i name="XCdc">     20.10141365 </i>
    <i name="pawpsdc">  18126.85303034 </i>
    <i name="pawaedc"> -17120.65589489 </i>
    <i name="eentropy">     -0.02249204 </i>
    <i name="bandstr">  -1931.36262189 </i>
    <i name="atom">  25300.53193963 </i>
    <i name="e_fr_energy">   1785.63929740 </i>
    <i name="e_wo_entrp">   1785.66178945 </i>
    <i name="e_0_energy">   1785.65054342 </i>
   </energy>
  </scstep>
  <scstep>
   <time name="dav">    7.51    7.57</time>
   <time name="total">    7.51    7.57</time>
   <energy>
    <i name="e_fr_energy">     58.27073605 </i>
    <i name="e_wo_entrp">     58.27073605 </i>
    <i name="e_0_energy">     58.27073605 </i>
   </energy>
  </scstep>
  <scstep>
   <time name="dav">    7.16    7.22</time>
   <time name="total">    7.16    7.22</time>
   <energy>
    <i name="e_fr_energy">    -99.40415938 </i>
    <i name="e_wo_entrp">    -99.40415938 </i>
    <i name="e_0_energy">    -99.40415938 </i>
   </energy>
  </scstep>
  <scstep>
   <time name="dav">    7.65    7.72</time>
   <time name="total">    7.66    7.72</time>
   <energy>
    <i name="e_fr_energy">   -105.86205990 </i>
    <i name="e_wo_entrp">   -105.86205990 </i>
    <i name="e_0_energy">   -105.86205990 </i>
   </energy>
  </scstep>
  <scstep>
   <time name="dav">    8.14    8.21</time>
   <time name="total">    8.62    8.70</time>
   <energy>
    <i name="e_fr_energy">   -106.17198225 </i>
    <i name="e_wo_entrp">   -106.17198225 </i>
    <i name="e_0_energy">   -106.17198225 </i>
   </energy>
  </scstep>
  <scstep>
   <time name="dav">    7.04    7.10</time>
   <time name="total">    7.65    7.72</time>
   <energy>
    <i name="e_fr_energy">   -105.58708584 </i>
    <i name="e_wo_entrp">   -105.58708584 </i>
    <i name="e_0_energy">   -105.58708584 </i>
   </energy>
  </scstep>
  <scstep>
   <time name="dav">    7.29    7.35</time>
   <time name="total">    7.89    7.96</time>
   <energy>
    <i name="e_fr_energy">   -105.39200313 </i>
    <i name="e_wo_entrp">   -105.39200313 </i>
    <i name="e_0_energy">   -105.39200313 </i>
   </energy>
  </scstep>
  <scstep>
   <time name="dav">    7.68    7.75</time>
   <time name="total">    8.29    8.36</time>
   <energy>
    <i name="e_fr_energy">   -105.31247623 </i>
    <i name="e_wo_entrp">   -105.31247623 </i>
    <i name="e_0_energy">   -105.31247623 </i>
   </energy>
  </scstep>
  <scstep>
   <time name="dav">    7.64    7.71</time>
   <time name="total">    8.24    8.32</time>
   <energy>
    <i name="e_fr_energy">   -105.30421497 </i>
    <i name="e_wo_entrp">   -105.30421497 </i>
    <i name="e_0_energy">   -105.30421497 </i>
   </energy>
  </scstep>
  <scstep>
   <time name="dav">    7.10    7.16</time>
   <time name="total">    7.70    7.77</time>
   <energy>
    <i name="e_fr_energy">   -105.29907707 </i>
    <i name="e_wo_entrp">   -105.29907707 </i>
    <i name="e_0_energy">   -105.29907707 </i>
   </energy>
  </scstep>
  <scstep>
   <time name="dav">    7.15    7.21</time>
   <time name="total">    7.76    7.83</time>
   <energy>
    <i name="e_fr_energy">   -105.29740032 </i>
    <i name="e_wo_entrp">   -105.29740032 </i>
    <i name="e_0_energy">   -105.29740032 </i>
   </energy>
  </scstep>
  <scstep>
   <time name="dav">    7.19    7.25</time>
   <time name="total">    7.80    7.87</time>
   <energy>
    <i name="e_fr_energy">   -105.29769495 </i>
    <i name="e_wo_entrp">   -105.29769495 </i>
    <i name="e_0_energy">   -105.29769495 </i>
   </energy>
  </scstep>
  <scstep>
   <time name="dav">    7.58    7.65</time>
   <time name="total">    8.20    8.27</time>
   <energy>
    <i name="e_fr_energy">   -105.29814494 </i>
    <i name="e_wo_entrp">   -105.29814494 </i>
    <i name="e_0_energy">   -105.29814494 </i>
   </energy>
  </scstep>
  <scstep>
   <time name="dav">    6.87    6.93</time>
   <time name="total">    7.48    7.55</time>
   <energy>
    <i name="e_fr_energy">   -105.29890825 </i>
    <i name="e_wo_entrp">   -105.29890825 </i>
    <i name="e_0_energy">   -105.29890825 </i>
   </energy>
  </scstep>
  <scstep>
   <time name="dav">    7.08    7.14</time>
   <time name="total">    7.69    7.76</time>
   <energy>
    <i name="e_fr_energy">   -105.29939802 </i>
    <i name="e_wo_entrp">   -105.29939802 </i>
    <i name="e_0_energy">   -105.29939802 </i>
   </energy>
  </scstep>
  <scstep>
   <time name="dav">    6.91    6.97</time>
   <time name="total">    7.52    7.59</time>
   <energy>
    <i name="e_fr_energy">   -105.29986054 </i>
    <i name="e_wo_entrp">   -105.29986054 </i>
    <i name="e_0_energy">   -105.29986054 </i>
   </energy>
  </scstep>
  <scstep>
   <time name="dav">    7.11    7.17</time>
   <time name="total">    7.72    7.79</time>
   <energy>
    <i name="e_fr_energy">   -105.30010936 </i>
    <i name="e_wo_entrp">   -105.30010936 </i>
    <i name="e_0_energy">   -105.30010936 </i>
   </energy>
  </scstep>
  <scstep>
   <time name="dav">    6.39    6.45</time>
   <time name="total">    7.00    7.06</time>
   <energy>
    <i name="e_fr_energy">   -105.30051605 </i>
    <i name="e_wo_entrp">   -105.30051605 </i>
    <i name="e_0_energy">   -105.30051605 </i>
   </energy>
  </scstep>
  <scstep>
   <time name="dav">    6.51    6.56</time>
   <time name="total">    7.12    7.18</time>
   <energy>
    <i name="e_fr_energy">   -105.30059529 </i>
    <i name="e_wo_entrp">   -105.30059529 </i>
    <i name="e_0_energy">   -105.30059529 </i>
   </energy>
  </scstep>
  <scstep>
   <time name="dav">    5.87    5.92</time>
   <time name="total">    6.48    6.54</time>
   <energy>
    <i name="e_fr_energy">   -105.30065460 </i>
    <i name="e_wo_entrp">   -105.30065460 </i>
    <i name="e_0_energy">   -105.30065460 </i>
   </energy>
  </scstep>
  <scstep>
   <time name="dav">    5.79    5.84</time>
   <time name="total">    6.41    6.46</time>
   <energy>
    <i name="e_fr_energy">   -105.30068624 </i>
    <i name="e_wo_entrp">   -105.30068624 </i>
    <i name="e_0_energy">   -105.30068624 </i>
   </energy>
  </scstep>
  <scstep>
   <time name="dav">    5.78    5.83</time>
   <time name="total">    6.39    6.44</time>
   <energy>
    <i name="e_fr_energy">   -105.30069295 </i>
    <i name="e_wo_entrp">   -105.30069295 </i>
    <i name="e_0_energy">   -105.30069295 </i>
   </energy>
  </scstep>
  <scstep>
   <time name="dav">    5.56    5.61</time>
   <time name="total">    6.17    6.23</time>
   <energy>
    <i name="e_fr_energy">   -105.30069718 </i>
    <i name="e_wo_entrp">   -105.30069718 </i>
    <i name="e_0_energy">   -105.30069718 </i>
   </energy>
  </scstep>
  <scstep>
   <time name="dav">    5.52    5.57</time>
   <time name="total">    6.14    6.20</time>
   <energy>
    <i name="e_fr_energy">   -105.30069879 </i>
    <i name="e_wo_entrp">   -105.30069879 </i>
    <i name="e_0_energy">   -105.30069879 </i>
   </energy>
  </scstep>
  <scstep>
   <time name="dav">    5.34    5.39</time>
   <time name="total">    5.95    6.01</time>
   <energy>
    <i name="e_fr_energy">   -105.30069949 </i>
    <i name="e_wo_entrp">   -105.30069949 </i>
    <i name="e_0_energy">   -105.30069949 </i>
   </energy>
  </scstep>
  <scstep>
   <time name="dav">    5.26    5.31</time>
   <time name="total">    5.88    5.93</time>
   <energy>
    <i name="e_fr_energy">   -105.30069968 </i>
    <i name="e_wo_entrp">   -105.30069968 </i>
    <i name="e_0_energy">   -105.30069968 </i>
   </energy>
  </scstep>
  <scstep>
   <time name="dav">    5.20    5.25</time>
   <time name="total">    5.34    5.39</time>
   <energy>
    <i name="alphaZ">     91.37721320 </i>
    <i name="ewald">   9356.30400577 </i>
    <i name="hartreedc"> -32187.02505998 </i>
    <i name="XCdc">     23.31567945 </i>
    <i name="pawpsdc">  18398.66136244 </i>
    <i name="pawaedc"> -17415.06134453 </i>
    <i name="eentropy">     -0.00000000 </i>
    <i name="bandstr">  -3673.40449574 </i>
    <i name="atom">  25300.53193963 </i>
    <i name="e_fr_energy">   -105.30069976 </i>
    <i name="e_wo_entrp">   -105.30069976 </i>
    <i name="e_0_energy">   -105.30069976 </i>
   </energy>
  </scstep>
  <structure>
   <crystal>
    <varray name="basis" >
     <v>      14.79171371       0.00000000       0.00000000 </v>
     <v>       0.00000000      12.78000069       0.00000000 </v>
     <v>       0.00000000       0.00000000      17.00000000 </v>
    </varray>
    <i name="volume">   3213.64789431 </i>
    <varray name="rec_basis" >
     <v>       0.06760542       0.00000000       0.00000000 </v>
     <v>       0.00000000       0.07824726       0.00000000 </v>
     <v>       0.00000000       0.00000000       0.05882353 </v>
    </varray>
   </crystal>
   <varray name="positions" >
    <v>       0.08333333       0.00000000       0.55000000 </v>
    <v>       0.58333333       0.00000000       0.55000000 </v>
    <v>       0.08333333       0.33333333       0.55000000 </v>
    <v>       0.58333333       0.33333333       0.55000000 </v>
    <v>       0.08333333       0.66666667       0.55000000 </v>
    <v>       0.58333333       0.66666667       0.55000000 </v>
    <v>       0.33333333       0.16666667       0.55000000 </v>
    <v>       0.83333333       0.16666667       0.55000000 </v>
    <v>       0.33333333       0.50000000       0.55000000 </v>
    <v>       0.83333333       0.50000000       0.55000000 </v>
    <v>       0.33333333       0.83333333       0.55000000 </v>
    <v>       0.83333333       0.83333333       0.55000000 </v>
    <v>       0.16666667       0.16666667       0.45000000 </v>
    <v>       0.66666667       0.16666667       0.45000000 </v>
    <v>       0.16666667       0.50000000       0.45000000 </v>
    <v>       0.66666667       0.50000000       0.45000000 </v>
    <v>       0.16666667       0.83333333       0.45000000 </v>
    <v>       0.66666667       0.83333333       0.45000000 </v>
    <v>       0.41666667       0.00000000       0.45000000 </v>
    <v>       0.91666667       0.00000000       0.45000000 </v>
    <v>       0.41666667       0.33333333       0.45000000 </v>
    <v>       0.91666667       0.33333333       0.45000000 </v>
    <v>       0.41666667       0.66666667       0.45000000 </v>
    <v>       0.91666667       0.66666667       0.45000000 </v>
   </varray>
  </structure>
  <varray name="forces" >
   <v>       0.00058278       0.00000028      -0.11602096 </v>
   <v>       0.00058230      -0.00000010      -0.11602183 </v>
   <v>       0.00059961       0.00196830      -0.11601620 </v>
   <v>       0.00059992       0.00196844      -0.11601609 </v>
   <v>       0.00059973      -0.00196846      -0.11601535 </v>
   <v>       0.00059985      -0.00196834      -0.11601616 </v>
   <v>       0.00059960      -0.00196856      -0.11601590 </v>
   <v>       0.00059992      -0.00196795      -0.11601608 </v>
   <v>       0.00058231       0.00000010      -0.11602168 </v>
   <v>       0.00058237      -0.00000009      -0.11602197 </v>
   <v>       0.00059987       0.00196836      -0.11601511 </v>
   <v>       0.00059971       0.00196811      -0.11601599 </v>
   <v>      -0.00059129       0.00006616       0.11601666 </v>
   <v>      -0.00059126       0.00006622       0.11601650 </v>
   <v>      -0.00059943      -0.00000001       0.11602015 </v>
   <v>      -0.00059939      -0.00000002       0.11602035 </v>
   <v>      -0.00059127      -0.00006617       0.11601643 </v>
   <v>      -0.00059130      -0.00006622       0.11601664 </v>
   <v>      -0.00059942      -0.00000002       0.11602020 </v>
   <v>      -0.00059943       0.00000004       0.11601990 </v>
   <v>      -0.00059128      -0.00006618       0.11601642 </v>
   <v>      -0.00059132      -0.00006617       0.11601691 </v>
   <v>      -0.00059127       0.00006617       0.11601655 </v>
   <v>      -0.00059130       0.00006611       0.11601660 </v>
  </varray>
  <varray name="stress" >
   <v>      -2.03779229       0.00000002       0.00608707 </v>
   <v>       0.00000001      -1.64051022      -0.00000000 </v>
   <v>       0.00608706      -0.00000001      -2.11282596 </v>
  </varray>
  <energy>
   <i name="e_fr_energy">   -105.30069976 </i>
   <i name="e_wo_entrp">   -105.30069976 </i>
   <i name="e_0_energy">   -105.30069976 </i>
  </energy>
  <scstep>
   <time name="total">    7.31    7.37</time>
   <energy>
    <i name="e_fr_energy">   -740.45218683 </i>
    <i name="e_wo_entrp">   -740.45218683 </i>
    <i name="e_0_energy">   -740.45218683 </i>
   </energy>
  </scstep>
  <scstep>
   <time name="total">    9.33    9.40</time>
   <energy>
    <i name="e_fr_energy">   -761.03696018 </i>
    <i name="e_wo_entrp">   -761.03696018 </i>
    <i name="e_0_energy">   -761.03696018 </i>
   </energy>
  </scstep>
  <scstep>
   <time name="total">    9.96   10.04</time>
   <energy>
    <i name="e_fr_energy">   -761.42091783 </i>
    <i name="e_wo_entrp">   -761.42091783 </i>
    <i name="e_0_energy">   -761.42091783 </i>
   </energy>
  </scstep>
  <scstep>
   <time name="total">   10.12   10.21</time>
   <energy>
    <i name="e_fr_energy">   -761.53032229 </i>
    <i name="e_wo_entrp">   -761.53032229 </i>
    <i name="e_0_energy">   -761.53032229 </i>
   </energy>
  </scstep>
  <scstep>
   <time name="total">   10.86   10.96</time>
   <energy>
    <i name="e_fr_energy">   -761.52003217 </i>
    <i name="e_wo_entrp">   -761.52003217 </i>
    <i name="e_0_energy">   -761.52003217 </i>
   </energy>
  </scstep>
  <scstep>
   <time name="total">   11.73   11.83</time>
   <energy>
    <i name="e_fr_energy">   -761.59750742 </i>
    <i name="e_wo_entrp">   -761.59750742 </i>
    <i name="e_0_energy">   -761.59750742 </i>
   </energy>
  </scstep>
  <scstep>
   <time name="total">   12.20   12.30</time>
   <energy>
    <i name="e_fr_energy">   -761.68662396 </i>
    <i name="e_wo_entrp">   -761.68662396 </i>
    <i name="e_0_energy">   -761.68662396 </i>
   </energy>
  </scstep>
  <scstep>
   <time name="total">   12.37   12.47</time>
   <energy>
    <i name="e_fr_energy">   -761.76091208 </i>
    <i name="e_wo_entrp">   -761.76091208 </i>
    <i name="e_0_energy">   -761.76091208 </i>
   </energy>
  </scstep>
  <scstep>
   <time name="total">   12.52   12.63</time>
   <energy>
    <i name="e_fr_energy">   -761.77167924 </i>
    <i name="e_wo_entrp">   -761.77167924 </i>
    <i name="e_0_energy">   -761.77167924 </i>
   </energy>
  </scstep>
  <scstep>
   <time name="total">   12.38   12.49</time>
   <energy>
    <i name="e_fr_energy">   -761.78355567 </i>
    <i name="e_wo_entrp">   -761.78355567 </i>
    <i name="e_0_energy">   -761.78355567 </i>
   </energy>
  </scstep>
  <scstep>
   <time name="total">   12.38   12.49</time>
   <energy>
    <i name="e_fr_energy">   -761.78564415 </i>
    <i name="e_wo_entrp">   -761.78564415 </i>
    <i name="e_0_energy">   -761.78564415 </i>
   </energy>
  </scstep>
  <scstep>
   <time name="total">   12.31   12.42</time>
   <energy>
    <i name="e_fr_energy">   -761.78693543 </i>
    <i name="e_wo_entrp">   -761.78693543 </i>
    <i name="e_0_energy">   -761.78693543 </i>
   </energy>
  </scstep>
  <scstep>
   <time name="total">   12.23   12.33</time>
   <energy>
    <i name="e_fr_energy">   -761.78731345 </i>
    <i name="e_wo_entrp">   -761.78731345 </i>
    <i name="e_0_energy">   -761.78731345 </i>
   </energy>
  </scstep>
  <scstep>
   <time name="total">   12.27   12.37</time>
   <energy>
    <i name="e_fr_energy">   -761.78757896 </i>
    <i name="e_wo_entrp">   -761.78757896 </i>
    <i name="e_0_energy">   -761.78757896 </i>
   </energy>
  </scstep>
  <scstep>
   <time name="total">   12.25   12.35</time>
   <energy>
    <i name="e_fr_energy">   -761.78774875 </i>
    <i name="e_wo_entrp">   -761.78774875 </i>
    <i name="e_0_energy">   -761.78774875 </i>
   </energy>
  </scstep>
  <scstep>
   <time name="total">   12.25   12.36</time>
   <energy>
    <i name="e_fr_energy">   -761.78769820 </i>
    <i name="e_wo_entrp">   -761.78769820 </i>
    <i name="e_0_energy">   -761.78769820 </i>
   </energy>
  </scstep>
  <scstep>
   <time name="total">   12.37   12.47</time>
   <energy>
    <i name="e_fr_energy">   -761.78788071 </i>
    <i name="e_wo_entrp">   -761.78788071 </i>
    <i name="e_0_energy">   -761.78788071 </i>
   </energy>
  </scstep>
  <scstep>
   <time name="total">   12.34   12.44</time>
   <energy>
    <i name="e_fr_energy">   -761.78775884 </i>
    <i name="e_wo_entrp">   -761.78775884 </i>
    <i name="e_0_energy">   -761.78775884 </i>
   </energy>
  </scstep>
  <scstep>
   <time name="total">   12.39   12.49</time>
   <energy>
    <i name="e_fr_energy">   -761.78797931 </i>
    <i name="e_wo_entrp">   -761.78797931 </i>
    <i name="e_0_energy">   -761.78797931 </i>
   </energy>
  </scstep>
  <scstep>
   <time name="total">   12.59   12.69</time>
   <energy>
    <i name="e_fr_energy">   -761.78791181 </i>
    <i name="e_wo_entrp">   -761.78791181 </i>
    <i name="e_0_energy">   -761.78791181 </i>
   </energy>
  </scstep>
  <scstep>
   <time name="total">   12.54   12.64</time>
   <energy>
    <i name="e_fr_energy">   -761.78798035 </i>
    <i name="e_wo_entrp">   -761.78798035 </i>
    <i name="e_0_energy">   -761.78798035 </i>
   </energy>
  </scstep>
  <scstep>
   <time name="total">    7.27    7.33</time>
   <energy>
    <i name="e_fr_energy">   -739.88832876 </i>
    <i name="e_wo_entrp">   -739.88832876 </i>
    <i name="e_0_energy">   -739.88832876 </i>
   </energy>
  </scstep>
  <scstep>
   <time name="total">    9.36    9.44</time>
   <energy>
    <i name="e_fr_energy">   -760.57901557 </i>
    <i name="e_wo_entrp">   -760.57901557 </i>
    <i name="e_0_energy">   -760.57901557 </i>
   </energy>
  </scstep>
  <scstep>
   <time name="total">    9.93   10.02</time>
   <energy>
    <i name="e_fr_energy">   -760.93906949 </i>
    <i name="e_wo_entrp">   -760.93906949 </i>
    <i name="e_0_energy">   -760.93906949 </i>
   </energy>
  </scstep>
  <scstep>
   <time name="total">   10.23   10.32</time>
   <energy>
    <i name="e_fr_energy">   -761.01477039 </i>
    <i name="e_wo_entrp">   -761.01477039 </i>
    <i name="e_0_energy">   -761.01477039 </i>
   </energy>
  </scstep>
  <scstep>
   <time name="total">   10.40   10.49</time>
   <energy>
    <i name="e_fr_energy">   -761.00344875 </i>
    <i name="e_wo_entrp">   -761.00344875 </i>
    <i name="e_0_energy">   -761.00344875 </i>
   </energy>
  </scstep>
  <scstep>
   <time name="total">   11.76   11.86</time>
   <energy>
    <i name="e_fr_energy">   -761.08698255 </i>
    <i name="e_wo_entrp">   -761.08698255 </i>
    <i name="e_0_energy">   -761.08698255 </i>
   </energy>
  </scstep>
  <scstep>
   <time name="total">   12.04   12.14</time>
   <energy>
    <i name="e_fr_energy">   -761.17625274 </i>
    <i name="e_wo_entrp">   -761.17625274 </i>
    <i name="e_0_energy">   -761.17625274 </i>
   </energy>
  </scstep>
  <scstep>
   <time name="total">   12.35   12.46</time>
   <energy>
    <i name="e_fr_energy">   -761.25308285 </i>
    <i name="e_wo_entrp">   -761.25308285 </i>
    <i name="e_0_energy">   -761.25308285 </i>
   </energy>
  </scstep>
  <scstep>
   <time name="total">   12.63   12.75</time>
   <energy>
    <i name="e_fr_energy">   -761.26052613 </i>
    <i name="e_wo_entrp">   -761.26052613 </i>
    <i name="e_0_energy">   -761.26052613 </i>
   </energy>
  </scstep>
  <scstep>
   <time name="total">   12.38   12.49</time>
   <energy>
    <i name="e_fr_energy">   -761.27151131 </i>
    <i name="e_wo_entrp">   -761.27151131 </i>
    <i name="e_0_energy">   -761.27151131 </i>
   </energy>
  </scstep>
  <scstep>
   <time name="total">   12.34   12.44</time>
   <energy>
    <i name="e_fr_energy">   -761.27321037 </i>
    <i name="e_wo_entrp">   -761.27321037 </i>
    <i name="e_0_energy">   -761.27321037 </i>
   </energy>
  </scstep>
  <scstep>
   <time name="total">   12.18   12.28</time>
   <energy>
    <i name="e_fr_energy">   -761.27424114 </i>
    <i name="e_wo_entrp">   -761.27424114 </i>
    <i name="e_0_energy">   -761.27424114 </i>
   </energy>
  </scstep>
  <scstep>
   <time name="total">   12.15   12.25</time>
   <energy>
    <i name="e_fr_energy">   -761.27489413 </i>
    <i name="e_wo_entrp">   -761.27489413 </i>
    <i name="e_0_energy">   -761.27489413 </i>
   </energy>
  </scstep>
  <scstep>
   <time name="total">   12.16   12.26</time>
   <energy>
    <i name="e_fr_energy">   -761.27521718 </i>
    <i name="e_wo_entrp">   -761.27521718 </i>
    <i name="e_0_energy">   -761.27521718 </i>
   </energy>
  </scstep>
  <scstep>
   <time name="total">   12.14   12.24</time>
   <energy>
    <i name="e_fr_energy">   -761.27549310 </i>
    <i name="e_wo_entrp">   -761.27549310 </i>
    <i name="e_0_energy">   -761.27549310 </i>
   </energy>
  </scstep>
  <scstep>
   <time name="total">   12.10   12.21</time>
   <energy>
    <i name="e_fr_energy">   -761.27540883 </i>
    <i name="e_wo_entrp">   -761.27540883 </i>
    <i name="e_0_energy">   -761.27540883 </i>
   </energy>
  </scstep>
  <scstep>
   <time name="total">   12.20   12.30</time>
   <energy>
    <i name="e_fr_energy">   -761.27559787 </i>
    <i name="e_wo_entrp">   -761.27559787 </i>
    <i name="e_0_energy">   -761.27559787 </i>
   </energy>
  </scstep>
  <scstep>
   <time name="total">   12.21   12.31</time>
   <energy>
    <i name="e_fr_energy">   -761.27545498 </i>
    <i name="e_wo_entrp">   -761.27545498 </i>
    <i name="e_0_energy">   -761.27545498 </i>
   </energy>
  </scstep>
  <scstep>
   <time name="total">   12.36   12.46</time>
   <energy>
    <i name="e_fr_energy">   -761.27559359 </i>
    <i name="e_wo_entrp">   -761.27559359 </i>
    <i name="e_0_energy">   -761.27559359 </i>
   </energy>
  </scstep>
  <scstep>
   <time name="total">   12.40   12.50</time>
   <energy>
    <i name="e_fr_energy">   -761.27547594 </i>
    <i name="e_wo_entrp">   -761.27547594 </i>
    <i name="e_0_energy">   -761.27547594 </i>
   </energy>
  </scstep>
  <scstep>
   <time name="total">   12.43   12.53</time>
   <energy>
    <i name="e_fr_energy">   -761.27557515 </i>
    <i name="e_wo_entrp">   -761.27557515 </i>
    <i name="e_0_energy">   -761.27557515 </i>
   </energy>
  </scstep>
  <scstep>
   <time name="total">   12.56   12.66</time>
   <energy>
    <i name="e_fr_energy">   -761.27555257 </i>
    <i name="e_wo_entrp">   -761.27555257 </i>
    <i name="e_0_energy">   -761.27555257 </i>
   </energy>
  </scstep>
  <scstep>
   <time name="total">   12.66   12.77</time>
   <energy>
    <i name="e_fr_energy">   -761.27563297 </i>
    <i name="e_wo_entrp">   -761.27563297 </i>
    <i name="e_0_energy">   -761.27563297 </i>
   </energy>
  </scstep>
  <scstep>
   <time name="total">   12.66   12.76</time>
   <energy>
    <i name="e_fr_energy">   -761.27559946 </i>
    <i name="e_wo_entrp">   -761.27559946 </i>
    <i name="e_0_energy">   -761.27559946 </i>
   </energy>
  </scstep>
  <scstep>
   <time name="total">   12.83   12.94</time>
   <energy>
    <i name="e_fr_energy">   -761.27566230 </i>
    <i name="e_wo_entrp">   -761.27566230 </i>
    <i name="e_0_energy">   -761.27566230 </i>
   </energy>
  </scstep>
  <scstep>
   <time name="total">   12.73   12.84</time>
   <energy>
    <i name="e_fr_energy">   -761.27557164 </i>
    <i name="e_wo_entrp">   -761.27557164 </i>
    <i name="e_0_energy">   -761.27557164 </i>
   </energy>
  </scstep>
  <scstep>
   <time name="total">   12.78   12.89</time>
   <energy>
    <i name="e_fr_energy">   -761.27561319 </i>
    <i name="e_wo_entrp">   -761.27561319 </i>
    <i name="e_0_energy">   -761.27561319 </i>
   </energy>
  </scstep>
  <scstep>
   <time name="total">    7.31    7.37</time>
   <energy>
    <i name="e_fr_energy">   -739.38592261 </i>
    <i name="e_wo_entrp">   -739.38592261 </i>
    <i name="e_0_energy">   -739.38592261 </i>
   </energy>
  </scstep>
  <scstep>
   <time name="total">    8.78    8.85</time>
   <energy>
    <i name="e_fr_energy">   -760.65328287 </i>
    <i name="e_wo_entrp">   -760.65328287 </i>
    <i name="e_0_energy">   -760.65328287 </i>
   </energy>
  </scstep>
  <scstep>
   <time name="total">   10.01   10.09</time>
   <energy>
    <i name="e_fr_energy">   -761.76678072 </i>
    <i name="e_wo_entrp">   -761.76678072 </i>
    <i name="e_0_energy">   -761.76678072 </i>
   </energy>
  </scstep>
  <scstep>
   <time name="total">   10.11   10.20</time>
   <energy>
    <i name="e_fr_energy">   -762.19654398 </i>
    <i name="e_wo_entrp">   -762.19654398 </i>
    <i name="e_0_energy">   -762.19654398 </i>
   </energy>
  </scstep>
  <scstep>
   <time name="total">   10.49   10.57</time>
   <energy>
    <i name="e_fr_energy">   -762.52701845 </i>
    <i name="e_wo_entrp">   -762.52701845 </i>
    <i name="e_0_energy">   -762.52701845 </i>
   </energy>
  </scstep>
  <scstep>
   <time name="total">   11.86   11.96</time>
   <energy>
    <i name="e_fr_energy">   -762.65339536 </i>
    <i name="e_wo_entrp">   -762.65339536 </i>
    <i name="e_0_energy">   -762.65339536 </i>
   </energy>
  </scstep>
  <scstep>
   <time name="total">   11.85   11.95</time>
   <energy>
    <i name="e_fr_energy">   -762.71978875 </i>
    <i name="e_wo_entrp">   -762.71978875 </i>
    <i name="e_0_energy">   -762.71978875 </i>
   </energy>
  </scstep>
  <scstep>
   <time name="total">   12.02   12.12</time>
   <energy>
    <i name="e_fr_energy">   -762.77862331 </i>
    <i name="e_wo_entrp">   -762.77862331 </i>
    <i name="e_0_energy">   -762.77862331 </i>
   </energy>
  </scstep>
  <scstep>
   <time name="total">   12.47   12.57</time>
   <energy>
    <i name="e_fr_energy">   -762.79058360 </i>
    <i name="e_wo_entrp">   -762.79058360 </i>
    <i name="e_0_energy">   -762.79058360 </i>
   </energy>
  </scstep>
  <scstep>
   <time name="total">   12.30   12.40</time>
   <energy>
    <i name="e_fr_energy">   -762.79225931 </i>
    <i name="e_wo_entrp">   -762.79225931 </i>
    <i name="e_0_energy">   -762.79225931 </i>
   </energy>
  </scstep>
  <scstep>
   <time name="total">   12.39   12.50</time>
   <energy>
    <i name="e_fr_energy">   -762.78903873 </i>
    <i name="e_wo_entrp">   -762.78903873 </i>
    <i name="e_0_energy">   -762.78903873 </i>
   </energy>
  </scstep>
  <scstep>
   <time name="total">   12.76   12.87</time>
   <energy>
    <i name="e_fr_energy">   -762.78275121 </i>
    <i name="e_wo_entrp">   -762.78275121 </i>
    <i name="e_0_energy">   -762.78275121 </i>
   </energy>
  </scstep>
  <scstep>
   <time name="total">   12.46   12.57</time>
   <energy>
    <i name="e_fr_energy">   -762.78159335 </i>
    <i name="e_wo_entrp">   -762.78159335 </i>
    <i name="e_0_energy">   -762.78159335 </i>
   </energy>
  </scstep>
  <scstep>
   <time name="total">   12.51   12.62</time>
   <energy>
    <i name="e_fr_energy">   -762.78135483 </i>
    <i name="e_wo_entrp">   -762.78135483 </i>
    <i name="e_0_energy">   -762.78135483 </i>
   </energy>
  </scstep>
  <scstep>
   <time name="total">   12.66   12.77</time>
   <energy>
    <i name="e_fr_energy">   -762.78237736 </i>
    <i name="e_wo_entrp">   -762.78237736 </i>
    <i name="e_0_energy">   -762.78237736 </i>
   </energy>
  </scstep>
  <scstep>
   <time name="total">   12.97   13.08</time>
   <energy>
    <i name="e_fr_energy">   -762.78184300 </i>
    <i name="e_wo_entrp">   -762.78184300 </i>
    <i name="e_0_energy">   -762.78184300 </i>
   </energy>
  </scstep>
  <scstep>
   <time name="total">   12.77   12.87</time>
   <energy>
    <i name="e_fr_energy">   -762.78291495 </i>
    <i name="e_wo_entrp">   -762.78291495 </i>
    <i name="e_0_energy">   -762.78291495 </i>
   </energy>
  </scstep>
  <scstep>
   <time name="total">   12.87   12.98</time>
   <energy>
    <i name="e_fr_energy">   -762.78249983 </i>
    <i name="e_wo_entrp">   -762.78249983 </i>
    <i name="e_0_energy">   -762.78249983 </i>
   </energy>
  </scstep>
  <scstep>
   <time name="total">   12.83   12.94</time>
   <energy>
    <i name="e_fr_energy">   -762.78288216 </i>
    <i name="e_wo_entrp">   -762.78288216 </i>
    <i name="e_0_energy">   -762.78288216 </i>
   </energy>
  </scstep>
  <scstep>
   <time name="total">   12.94   13.05</time>
   <energy>
    <i name="e_fr_energy">   -762.78224991 </i>
    <i name="e_wo_entrp">   -762.78224991 </i>
    <i name="e_0_energy">   -762.78224991 </i>
   </energy>
  </scstep>
  <scstep>
   <time name="total">   12.92   13.03</time>
   <energy>
    <i name="e_fr_energy">   -762.78271307 </i>
    <i name="e_wo_entrp">   -762.78271307 </i>
    <i name="e_0_energy">   -762.78271307 </i>
   </energy>
  </scstep>
  <scstep>
   <time name="total">   13.00   13.11</time>
   <energy>
    <i name="e_fr_energy">   -762.78221643 </i>
    <i name="e_wo_entrp">   -762.78221643 </i>
    <i name="e_0_energy">   -762.78221643 </i>
   </energy>
  </scstep>
  <scstep>
   <time name="total">    7.29    7.35</time>
   <energy>
    <i name="e_fr_energy">   -740.45219395 </i>
    <i name="e_wo_entrp">   -740.45219395 </i>
    <i name="e_0_energy">   -740.45219395 </i>
   </energy>
  </scstep>
  <scstep>
   <time name="total">    9.34    9.42</time>
   <energy>
    <i name="e_fr_energy">   -761.03810147 </i>
    <i name="e_wo_entrp">   -761.03810147 </i>
    <i name="e_0_energy">   -761.03810147 </i>
   </energy>
  </scstep>
  <scstep>
   <time name="total">    9.94   10.02</time>
   <energy>
    <i name="e_fr_energy">   -761.42159355 </i>
    <i name="e_wo_entrp">   -761.42159355 </i>
    <i name="e_0_energy">   -761.42159355 </i>
   </energy>
  </scstep>
  <scstep>
   <time name="total">   10.20   10.29</time>
   <energy>
    <i name="e_fr_energy">   -761.52857901 </i>
    <i name="e_wo_entrp">   -761.52857901 </i>
    <i name="e_0_energy">   -761.52857901 </i>
   </energy>
  </scstep>
  <scstep>
   <time name="total">   10.89   10.98</time>
   <energy>
    <i name="e_fr_energy">   -761.51892271 </i>
    <i name="e_wo_entrp">   -761.51892271 </i>
    <i name="e_0_energy">   -761.51892271 </i>
   </energy>
  </scstep>
  <scstep>
   <time name="total">   11.68   11.77</time>
   <energy>
    <i name="e_fr_energy">   -761.59747423 </i>
    <i name="e_wo_entrp">   -761.59747423 </i>
    <i name="e_0_energy">   -761.59747423 </i>
   </energy>
  </scstep>
  <scstep>
   <time name="total">   12.12   12.22</time>
   <energy>
    <i name="e_fr_energy">   -761.68716116 </i>
    <i name="e_wo_entrp">   -761.68716116 </i>
    <i name="e_0_energy">   -761.68716116 </i>
   </energy>
  </scstep>
  <scstep>
   <time name="total">   12.39   12.49</time>
   <energy>
    <i name="e_fr_energy">   -761.76088497 </i>
    <i name="e_wo_entrp">   -761.76088497 </i>
    <i name="e_0_energy">   -761.76088497 </i>
   </energy>
  </scstep>
  <scstep>
   <time name="total">   12.48   12.60</time>
   <energy>
    <i name="e_fr_energy">   -761.77174320 </i>
    <i name="e_wo_entrp">   -761.77174320 </i>
    <i name="e_0_energy">   -761.77174320 </i>
   </energy>
  </scstep>
  <scstep>
   <time name="total">   12.38   12.48</time>
   <energy>
    <i name="e_fr_energy">   -761.78286092 </i>
    <i name="e_wo_entrp">   -761.78286092 </i>
    <i name="e_0_energy">   -761.78286092 </i>
   </energy>
  </scstep>
  <scstep>
   <time name="total">   12.34   12.44</time>
   <energy>
    <i name="e_fr_energy">   -761.78602315 </i>
    <i name="e_wo_entrp">   -761.78602315 </i>
    <i name="e_0_energy">   -761.78602315 </i>
   </energy>
  </scstep>
  <scstep>
   <time name="total">   12.30   12.40</time>
   <energy>
    <i name="e_fr_energy">   -761.78709616 </i>
    <i name="e_wo_entrp">   -761.78709616 </i>
    <i name="e_0_energy">   -761.78709616 </i>
   </energy>
  </scstep>
  <scstep>
   <time name="total">   12.19   12.30</time>
   <energy>
    <i name="e_fr_energy">   -761.78729102 </i>
    <i name="e_wo_entrp">   -761.78729102 </i>
    <i name="e_0_energy">   -761.78729102 </i>
   </energy>
  </scstep>
  <scstep>
   <time name="total">   12.27   12.37</time>
   <energy>
    <i name="e_fr_energy">   -761.78759010 </i>
    <i name="e_wo_entrp">   -761.78759010 </i>
    <i name="e_0_energy">   -761.78759010 </i>
   </energy>
  </scstep>
  <scstep>
   <time name="total">   12.19   12.29</time>
   <energy>
    <i name="e_fr_energy">   -761.78770573 </i>
    <i name="e_wo_entrp">   -761.78770573 </i>
    <i name="e_0_energy">   -761.78770573 </i>
   </energy>
  </scstep>
  <scstep>
   <time name="total">   12.23   12.33</time>
   <energy>
    <i name="e_fr_energy">   -761.78770063 </i>
    <i name="e_wo_entrp">   -761.78770063 </i>
    <i name="e_0_energy">   -761.78770063 </i>
   </energy>
  </scstep>
  <scstep>
   <time name="total">   12.29   12.39</time>
   <energy>
    <i name="e_fr_energy">   -761.78789826 </i>
    <i name="e_wo_entrp">   -761.78789826 </i>
    <i name="e_0_energy">   -761.78789826 </i>
   </energy>
  </scstep>
  <scstep>
   <time name="total">   12.33   12.43</time>
   <energy>
    <i name="e_fr_energy">   -761.78774697 </i>
    <i name="e_wo_entrp">   -761.78774697 </i>
    <i name="e_0_energy">   -761.78774697 </i>
   </energy>
  </scstep>
  <scstep>
   <time name="total">   12.33   12.44</time>
   <energy>
    <i name="e_fr_energy">   -761.78802465 </i>
    <i name="e_wo_entrp">   -761.78802465 </i>
    <i name="e_0_energy">   -761.78802465 </i>
   </energy>
  </scstep>
  <scstep>
   <time name="total">   12.44   12.55</time>
   <energy>
    <i name="e_fr_energy">   -761.78781390 </i>
    <i name="e_wo_entrp">   -761.78781390 </i>
    <i name="e_0_energy">   -761.78781390 </i>
   </energy>
  </scstep>
  <scstep>
   <time name="total">   12.46   12.56</time>
   <energy>
    <i name="e_fr_energy">   -761.78799600 </i>
    <i name="e_wo_entrp">   -761.78799600 </i>
    <i name="e_0_energy">   -761.78799600 </i>
   </energy>
  </scstep>
  <scstep>
   <time name="total">    7.25    7.31</time>
   <energy>
    <i name="e_fr_energy">   -739.88833649 </i>
    <i name="e_wo_entrp">   -739.88833649 </i>
    <i name="e_0_energy">   -739.88833649 </i>
   </energy>
  </scstep>
  <scstep>
   <time name="total">    9.34    9.42</time>
   <energy>
    <i name="e_fr_energy">   -760.57799082 </i>
    <i name="e_wo_entrp">   -760.57799082 </i>
    <i name="e_0_energy">   -760.57799082 </i>
   </energy>
  </scstep>
  <scstep>
   <time name="total">    9.96   10.04</time>
   <energy>
    <i name="e_fr_energy">   -760.93814505 </i>
    <i name="e_wo_entrp">   -760.93814505 </i>
    <i name="e_0_energy">   -760.93814505 </i>
   </energy>
  </scstep>
  <scstep>
   <time name="total">   10.22   10.30</time>
   <energy>
    <i name="e_fr_energy">   -761.01457664 </i>
    <i name="e_wo_entrp">   -761.01457664 </i>
    <i name="e_0_energy">   -761.01457664 </i>
   </energy>
  </scstep>
  <scstep>
   <time name="total">   10.42   10.51</time>
   <energy>
    <i name="e_fr_energy">   -761.00312597 </i>
    <i name="e_wo_entrp">   -761.00312597 </i>
    <i name="e_0_energy">   -761.00312597 </i>
   </energy>
  </scstep>
  <scstep>
   <time name="total">   11.78   11.88</time>
   <energy>
    <i name="e_fr_energy">   -761.08703618 </i>
    <i name="e_wo_entrp">   -761.08703618 </i>
    <i name="e_0_energy">   -761.08703618 </i>
   </energy>
  </scstep>
  <scstep>
   <time name="total">   12.06   12.16</time>
   <energy>
    <i name="e_fr_energy">   -761.17554304 </i>
    <i name="e_wo_entrp">   -761.17554304 </i>
    <i name="e_0_energy">   -761.17554304 </i>
   </energy>
  </scstep>
  <scstep>
   <time name="total">   12.35   12.45</time>
   <energy>
    <i name="e_fr_energy">   -761.25281319 </i>
    <i name="e_wo_entrp">   -761.25281319 </i>
    <i name="e_0_energy">   -761.25281319 </i>
   </energy>
  </scstep>
  <scstep>
   <time name="total">   12.58   12.68</time>
   <energy>
    <i name="e_fr_energy">   -761.26054037 </i>
    <i name="e_wo_entrp">   -761.26054037 </i>
    <i name="e_0_energy">   -761.26054037 </i>
   </energy>
  </scstep>
  <scstep>
   <time name="total">   12.33   12.43</time>
   <energy>
    <i name="e_fr_energy">   -761.27124036 </i>
    <i name="e_wo_entrp">   -761.27124036 </i>
    <i name="e_0_energy">   -761.27124036 </i>
   </energy>
  </scstep>
  <scstep>
   <time name="total">   12.35   12.45</time>
   <energy>
    <i name="e_fr_energy">   -761.27303949 </i>
    <i name="e_wo_entrp">   -761.27303949 </i>
    <i name="e_0_energy">   -761.27303949 </i>
   </energy>
  </scstep>
  <scstep>
   <time name="total">   12.25   12.35</time>
   <energy>
    <i name="e_fr_energy">   -761.27411192 </i>
    <i name="e_wo_entrp">   -761.27411192 </i>
    <i name="e_0_energy">   -761.27411192 </i>
   </energy>
  </scstep>
  <scstep>
   <time name="total">   12.12   12.23</time>
   <energy>
    <i name="e_fr_energy">   -761.27473916 </i>
    <i name="e_wo_entrp">   -761.27473916 </i>
    <i name="e_0_energy">   -761.27473916 </i>
   </energy>
  </scstep>
  <scstep>
   <time name="total">   12.11   12.21</time>
   <energy>
    <i name="e_fr_energy">   -761.27504855 </i>
    <i name="e_wo_entrp">   -761.27504855 </i>
    <i name="e_0_energy">   -761.27504855 </i>
   </energy>
  </scstep>
  <scstep>
   <time name="total">   12.14   12.24</time>
   <energy>
    <i name="e_fr_energy">   -761.27536740 </i>
    <i name="e_wo_entrp">   -761.27536740 </i>
    <i name="e_0_energy">   -761.27536740 </i>
   </energy>
  </scstep>
  <scstep>
   <time name="total">   12.06   12.16</time>
   <energy>
    <i name="e_fr_energy">   -761.27529211 </i>
    <i name="e_wo_entrp">   -761.27529211 </i>
    <i name="e_0_energy">   -761.27529211 </i>
   </energy>
  </scstep>
  <scstep>
   <time name="total">   12.17   12.27</time>
   <energy>
    <i name="e_fr_energy">   -761.27546527 </i>
    <i name="e_wo_entrp">   -761.27546527 </i>
    <i name="e_0_energy">   -761.27546527 </i>
   </energy>
  </scstep>
  <scstep>
   <time name="total">   12.19   12.29</time>
   <energy>
    <i name="e_fr_energy">   -761.27530602 </i>
    <i name="e_wo_entrp">   -761.27530602 </i>
    <i name="e_0_energy">   -761.27530602 </i>
   </energy>
  </scstep>
  <scstep>
   <time name="total">   12.32   12.43</time>
   <energy>
    <i name="e_fr_energy">   -761.27545341 </i>
    <i name="e_wo_entrp">   -761.27545341 </i>
    <i name="e_0_energy">   -761.27545341 </i>
   </energy>
  </scstep>
  <scstep>
   <time name="total">   12.43   12.53</time>
   <energy>
    <i name="e_fr_energy">   -761.27535128 </i>
    <i name="e_wo_entrp">   -761.27535128 </i>
    <i name="e_0_energy">   -761.27535128 </i>
   </energy>
  </scstep>
  <scstep>
   <time name="total">   12.46   12.56</time>
   <energy>
    <i name="e_fr_energy">   -761.27548099 </i>
    <i name="e_wo_entrp">   -761.27548099 </i>
    <i name="e_0_energy">   -761.27548099 </i>
   </energy>
  </scstep>
  <scstep>
   <time name="total">   12.51   12.62</time>
   <energy>
    <i name="e_fr_energy">   -761.27537141 </i>
    <i name="e_wo_entrp">   -761.27537141 </i>
    <i name="e_0_energy">   -761.27537141 </i>
   </energy>
  </scstep>
  <scstep>
   <time name="total">   12.56   12.66</time>
   <energy>
    <i name="e_fr_energy">   -761.27551582 </i>
    <i name="e_wo_entrp">   -761.27551582 </i>
    <i name="e_0_energy">   -761.27551582 </i>
   </energy>
  </scstep>
  <scstep>
   <time name="total">   12.61   12.72</time>
   <energy>
    <i name="e_fr_energy">   -761.27546677 </i>
    <i name="e_wo_entrp">   -761.27546677 </i>
    <i name="e_0_energy">   -761.27546677 </i>
   </energy>
  </scstep>
  <scstep>
   <time name="total">   12.66   12.76</time>
   <energy>
    <i name="e_fr_energy">   -761.27553358 </i>
    <i name="e_wo_entrp">   -761.27553358 </i>
    <i name="e_0_energy">   -761.27553358 </i>
   </energy>
  </scstep>
  <scstep>
   <time name="total">   12.69   12.79</time>
   <energy>
    <i name="e_fr_energy">   -761.27545626 </i>
    <i name="e_wo_entrp">   -761.27545626 </i>
    <i name="e_0_energy">   -761.27545626 </i>
   </energy>
  </scstep>
  <scstep>
   <time name="total">    7.30    7.36</time>
   <energy>
    <i name="e_fr_energy">   -739.38593117 </i>
    <i name="e_wo_entrp">   -739.38593117 </i>
    <i name="e_0_energy">   -739.38593117 </i>
   </energy>
  </scstep>
  <scstep>
   <time name="total">    8.80    8.87</time>
   <energy>
    <i name="e_fr_energy">   -760.65106448 </i>
    <i name="e_wo_entrp">   -760.65106448 </i>
    <i name="e_0_energy">   -760.65106448 </i>
   </energy>
  </scstep>
  <scstep>
   <time name="total">   10.00   10.08</time>
   <energy>
    <i name="e_fr_energy">   -761.76846758 </i>
    <i name="e_wo_entrp">   -761.76846758 </i>
    <i name="e_0_energy">   -761.76846758 </i>
   </energy>
  </scstep>
  <scstep>
   <time name="total">   10.08   10.17</time>
   <energy>
    <i name="e_fr_energy">   -762.19687202 </i>
    <i name="e_wo_entrp">   -762.19687202 </i>
    <i name="e_0_energy">   -762.19687202 </i>
   </energy>
  </scstep>
  <scstep>
   <time name="total">   10.51   10.59</time>
   <energy>
    <i name="e_fr_energy">   -762.52669840 </i>
    <i name="e_wo_entrp">   -762.52669840 </i>
    <i name="e_0_energy">   -762.52669840 </i>
   </energy>
  </scstep>
  <scstep>
   <time name="total">   11.82   11.91</time>
   <energy>
    <i name="e_fr_energy">   -762.65309159 </i>
    <i name="e_wo_entrp">   -762.65309159 </i>
    <i name="e_0_energy">   -762.65309159 </i>
   </energy>
  </scstep>
  <scstep>
   <time name="total">   11.88   11.97</time>
   <energy>
    <i name="e_fr_energy">   -762.71960378 </i>
    <i name="e_wo_entrp">   -762.71960378 </i>
    <i name="e_0_energy">   -762.71960378 </i>
   </energy>
  </scstep>
  <scstep>
   <time name="total">   11.99   12.09</time>
   <energy>
    <i name="e_fr_energy">   -762.77842105 </i>
    <i name="e_wo_entrp">   -762.77842105 </i>
    <i name="e_0_energy">   -762.77842105 </i>
   </energy>
  </scstep>
  <scstep>
   <time name="total">   12.50   12.60</time>
   <energy>
    <i name="e_fr_energy">   -762.79048344 </i>
    <i name="e_wo_entrp">   -762.79048344 </i>
    <i name="e_0_energy">   -762.79048344 </i>
   </energy>
  </scstep>
  <scstep>
   <time name="total">   12.37   12.47</time>
   <energy>
    <i name="e_fr_energy">   -762.79215357 </i>
    <i name="e_wo_entrp">   -762.79215357 </i>
    <i name="e_0_energy">   -762.79215357 </i>
   </energy>
  </scstep>
  <scstep>
   <time name="total">   12.31   12.42</time>
   <energy>
    <i name="e_fr_energy">   -762.78912742 </i>
    <i name="e_wo_entrp">   -762.78912742 </i>
    <i name="e_0_energy">   -762.78912742 </i>
   </energy>
  </scstep>
  <scstep>
   <time name="total">   12.75   12.85</time>
   <energy>
    <i name="e_fr_energy">   -762.78269249 </i>
    <i name="e_wo_entrp">   -762.78269249 </i>
    <i name="e_0_energy">   -762.78269249 </i>
   </energy>
  </scstep>
  <scstep>
   <time name="total">   12.58   12.69</time>
   <energy>
    <i name="e_fr_energy">   -762.78156469 </i>
    <i name="e_wo_entrp">   -762.78156469 </i>
    <i name="e_0_energy">   -762.78156469 </i>
   </energy>
  </scstep>
  <scstep>
   <time name="total">   12.50   12.61</time>
   <energy>
    <i name="e_fr_energy">   -762.78127529 </i>
    <i name="e_wo_entrp">   -762.78127529 </i>
    <i name="e_0_energy">   -762.78127529 </i>
   </energy>
  </scstep>
  <scstep>
   <time name="total">   12.69   12.79</time>
   <energy>
    <i name="e_fr_energy">   -762.78231890 </i>
    <i name="e_wo_entrp">   -762.78231890 </i>
    <i name="e_0_energy">   -762.78231890 </i>
   </energy>
  </scstep>
  <scstep>
   <time name="total">   12.91   13.02</time>
   <energy>
    <i name="e_fr_energy">   -762.78179288 </i>
    <i name="e_wo_entrp">   -762.78179288 </i>
    <i name="e_0_energy">   -762.78179288 </i>
   </energy>
  </scstep>
  <scstep>
   <time name="total">   12.81   12.91</time>
   <energy>
    <i name="e_fr_energy">   -762.78307214 </i>
    <i name="e_wo_entrp">   -762.78307214 </i>
    <i name="e_0_energy">   -762.78307214 </i>
   </energy>
  </scstep>
  <scstep>
   <time name="total">   12.86   12.97</time>
   <energy>
    <i name="e_fr_energy">   -762.78233964 </i>
    <i name="e_wo_entrp">   -762.78233964 </i>
    <i name="e_0_energy">   -762.78233964 </i>
   </energy>
  </scstep>
  <scstep>
   <time name="total">   12.82   12.93</time>
   <energy>
    <i name="e_fr_energy">   -762.78280402 </i>
    <i name="e_wo_entrp">   -762.78280402 </i>
    <i name="e_0_energy">   -762.78280402 </i>
   </energy>
  </scstep>
  <scstep>
   <time name="total">   12.89   13.00</time>
   <energy>
    <i name="e_fr_energy">   -762.78217626 </i>
    <i name="e_wo_entrp">   -762.78217626 </i>
    <i name="e_0_energy">   -762.78217626 </i>
   </energy>
  </scstep>
  <scstep>
   <time name="total">   12.91   13.02</time>
   <energy>
    <i name="e_fr_energy">   -762.78265763 </i>
    <i name="e_wo_entrp">   -762.78265763 </i>
    <i name="e_0_energy">   -762.78265763 </i>
   </energy>
  </scstep>
  <scstep>
   <time name="total">   13.05   13.16</time>
   <energy>
    <i name="e_fr_energy">   -762.78215811 </i>
    <i name="e_wo_entrp">   -762.78215811 </i>
    <i name="e_0_energy">   -762.78215811 </i>
   </energy>
  </scstep>
  <scstep>
   <time name="total">    7.29    7.35</time>
   <energy>
    <i name="e_fr_energy">   -740.45045235 </i>
    <i name="e_wo_entrp">   -740.45045235 </i>
    <i name="e_0_energy">   -740.45045235 </i>
   </energy>
  </scstep>
  <scstep>
   <time name="total">    9.27    9.36</time>
   <energy>
    <i name="e_fr_energy">   -761.04423953 </i>
    <i name="e_wo_entrp">   -761.04423953 </i>
    <i name="e_0_energy">   -761.04423953 </i>
   </energy>
  </scstep>
  <scstep>
   <time name="total">    9.90    9.99</time>
   <energy>
    <i name="e_fr_energy">   -761.41445670 </i>
    <i name="e_wo_entrp">   -761.41445670 </i>
    <i name="e_0_energy">   -761.41445670 </i>
   </energy>
  </scstep>
  <scstep>
   <time name="total">   10.12   10.21</time>
   <energy>
    <i name="e_fr_energy">   -761.52513153 </i>
    <i name="e_wo_entrp">   -761.52513153 </i>
    <i name="e_0_energy">   -761.52513153 </i>
   </energy>
  </scstep>
  <scstep>
   <time name="total">   10.89   10.98</time>
   <energy>
    <i name="e_fr_energy">   -761.51535751 </i>
    <i name="e_wo_entrp">   -761.51535751 </i>
    <i name="e_0_energy">   -761.51535751 </i>
   </energy>
  </scstep>
  <scstep>
   <time name="total">   11.71   11.81</time>
   <energy>
    <i name="e_fr_energy">   -761.59421568 </i>
    <i name="e_wo_entrp">   -761.59421568 </i>
    <i name="e_0_energy">   -761.59421568 </i>
   </energy>
  </scstep>
  <scstep>
   <time name="total">   12.13   12.23</time>
   <energy>
    <i name="e_fr_energy">   -761.68616407 </i>
    <i name="e_wo_entrp">   -761.68616407 </i>
    <i name="e_0_energy">   -761.68616407 </i>
   </energy>
  </scstep>
  <scstep>
   <time name="total">   12.36   12.46</time>
   <energy>
    <i name="e_fr_energy">   -761.76201888 </i>
    <i name="e_wo_entrp">   -761.76201888 </i>
    <i name="e_0_energy">   -761.76201888 </i>
   </energy>
  </scstep>
  <scstep>
   <time name="total">   12.48   12.58</time>
   <energy>
    <i name="e_fr_energy">   -761.77309497 </i>
    <i name="e_wo_entrp">   -761.77309497 </i>
    <i name="e_0_energy">   -761.77309497 </i>
   </energy>
  </scstep>
  <scstep>
   <time name="total">   12.44   12.55</time>
   <energy>
    <i name="e_fr_energy">   -761.78437550 </i>
    <i name="e_wo_entrp">   -761.78437550 </i>
    <i name="e_0_energy">   -761.78437550 </i>
   </energy>
  </scstep>
  <scstep>
   <time name="total">   12.35   12.45</time>
   <energy>
    <i name="e_fr_energy">   -761.78706116 </i>
    <i name="e_wo_entrp">   -761.78706116 </i>
    <i name="e_0_energy">   -761.78706116 </i>
   </energy>
  </scstep>
  <scstep>
   <time name="total">   12.27   12.37</time>
   <energy>
    <i name="e_fr_energy">   -761.78829276 </i>
    <i name="e_wo_entrp">   -761.78829276 </i>
    <i name="e_0_energy">   -761.78829276 </i>
   </energy>
  </scstep>
  <scstep>
   <time name="total">   12.19   12.29</time>
   <energy>
    <i name="e_fr_energy">   -761.78859276 </i>
    <i name="e_wo_entrp">   -761.78859276 </i>
    <i name="e_0_energy">   -761.78859276 </i>
   </energy>
  </scstep>
  <scstep>
   <time name="total">   12.26   12.37</time>
   <energy>
    <i name="e_fr_energy">   -761.78896170 </i>
    <i name="e_wo_entrp">   -761.78896170 </i>
    <i name="e_0_energy">   -761.78896170 </i>
   </energy>
  </scstep>
  <scstep>
   <time name="total">   12.30   12.41</time>
   <energy>
    <i name="e_fr_energy">   -761.78908471 </i>
    <i name="e_wo_entrp">   -761.78908471 </i>
    <i name="e_0_energy">   -761.78908471 </i>
   </energy>
  </scstep>
  <scstep>
   <time name="total">   12.24   12.34</time>
   <energy>
    <i name="e_fr_energy">   -761.78909660 </i>
    <i name="e_wo_entrp">   -761.78909660 </i>
    <i name="e_0_energy">   -761.78909660 </i>
   </energy>
  </scstep>
  <scstep>
   <time name="total">   12.33   12.43</time>
   <energy>
    <i name="e_fr_energy">   -761.78928896 </i>
    <i name="e_wo_entrp">   -761.78928896 </i>
    <i name="e_0_energy">   -761.78928896 </i>
   </energy>
  </scstep>
  <scstep>
   <time name="total">   12.40   12.50</time>
   <energy>
    <i name="e_fr_energy">   -761.78909959 </i>
    <i name="e_wo_entrp">   -761.78909959 </i>
    <i name="e_0_energy">   -761.78909959 </i>
   </energy>
  </scstep>
  <scstep>
   <time name="total">   12.42   12.52</time>
   <energy>
    <i name="e_fr_energy">   -761.78934602 </i>
    <i name="e_wo_entrp">   -761.78934602 </i>
    <i name="e_0_energy">   -761.78934602 </i>
   </energy>
  </scstep>
  <scstep>
   <time name="total">   12.55   12.65</time>
   <energy>
    <i name="e_fr_energy">   -761.78917353 </i>
    <i name="e_wo_entrp">   -761.78917353 </i>
    <i name="e_0_energy">   -761.78917353 </i>
   </energy>
  </scstep>
  <scstep>
   <time name="total">   12.54   12.64</time>
   <energy>
    <i name="e_fr_energy">   -761.78942483 </i>
    <i name="e_wo_entrp">   -761.78942483 </i>
    <i name="e_0_energy">   -761.78942483 </i>
   </energy>
  </scstep>
  <scstep>
   <time name="total">    7.28    7.36</time>
   <energy>
    <i name="e_fr_energy">   -739.84329939 </i>
    <i name="e_wo_entrp">   -739.84329939 </i>
    <i name="e_0_energy">   -739.84329939 </i>
   </energy>
  </scstep>
  <scstep>
   <time name="total">    9.36    9.44</time>
   <energy>
    <i name="e_fr_energy">   -760.53676364 </i>
    <i name="e_wo_entrp">   -760.53676364 </i>
    <i name="e_0_energy">   -760.53676364 </i>
   </energy>
  </scstep>
  <scstep>
   <time name="total">   10.00   10.08</time>
   <energy>
    <i name="e_fr_energy">   -760.88794587 </i>
    <i name="e_wo_entrp">   -760.88794587 </i>
    <i name="e_0_energy">   -760.88794587 </i>
   </energy>
  </scstep>
  <scstep>
   <time name="total">   10.21   10.30</time>
   <energy>
    <i name="e_fr_energy">   -760.96621247 </i>
    <i name="e_wo_entrp">   -760.96621247 </i>
    <i name="e_0_energy">   -760.96621247 </i>
   </energy>
  </scstep>
  <scstep>
   <time name="total">   10.41   10.50</time>
   <energy>
    <i name="e_fr_energy">   -760.95673777 </i>
    <i name="e_wo_entrp">   -760.95673777 </i>
    <i name="e_0_energy">   -760.95673777 </i>
   </energy>
  </scstep>
  <scstep>
   <time name="total">   11.79   11.89</time>
   <energy>
    <i name="e_fr_energy">   -761.04140662 </i>
    <i name="e_wo_entrp">   -761.04140662 </i>
    <i name="e_0_energy">   -761.04140662 </i>
   </energy>
  </scstep>
  <scstep>
   <time name="total">   12.13   12.22</time>
   <energy>
    <i name="e_fr_energy">   -761.13071502 </i>
    <i name="e_wo_entrp">   -761.13071502 </i>
    <i name="e_0_energy">   -761.13071502 </i>
   </energy>
  </scstep>
  <scstep>
   <time name="total">   12.45   12.55</time>
   <energy>
    <i name="e_fr_energy">   -761.20920988 </i>
    <i name="e_wo_entrp">   -761.20920988 </i>
    <i name="e_0_energy">   -761.20920988 </i>
   </energy>
  </scstep>
  <scstep>
   <time name="total">   12.56   12.66</time>
   <energy>
    <i name="e_fr_energy">   -761.21670558 </i>
    <i name="e_wo_entrp">   -761.21670558 </i>
    <i name="e_0_energy">   -761.21670558 </i>
   </energy>
  </scstep>
  <scstep>
   <time name="total">   12.36   12.46</time>
   <energy>
    <i name="e_fr_energy">   -761.22688430 </i>
    <i name="e_wo_entrp">   -761.22688430 </i>
    <i name="e_0_energy">   -761.22688430 </i>
   </energy>
  </scstep>
  <scstep>
   <time name="total">   12.39   12.49</time>
   <energy>
    <i name="e_fr_energy">   -761.22881389 </i>
    <i name="e_wo_entrp">   -761.22881389 </i>
    <i name="e_0_energy">   -761.22881389 </i>
   </energy>
  </scstep>
  <scstep>
   <time name="total">   12.22   12.33</time>
   <energy>
    <i name="e_fr_energy">   -761.22966826 </i>
    <i name="e_wo_entrp">   -761.22966826 </i>
    <i name="e_0_energy">   -761.22966826 </i>
   </energy>
  </scstep>
  <scstep>
   <time name="total">   12.22   12.32</time>
   <energy>
    <i name="e_fr_energy">   -761.23010703 </i>
    <i name="e_wo_entrp">   -761.23010703 </i>
    <i name="e_0_energy">   -761.23010703 </i>
   </energy>
  </scstep>
  <scstep>
   <time name="total">   12.16   12.26</time>
   <energy>
    <i name="e_fr_energy">   -761.23039964 </i>
    <i name="e_wo_entrp">   -761.23039964 </i>
    <i name="e_0_energy">   -761.23039964 </i>
   </energy>
  </scstep>
  <scstep>
   <time name="total">   12.20   12.30</time>
   <energy>
    <i name="e_fr_energy">   -761.23069109 </i>
    <i name="e_wo_entrp">   -761.23069109 </i>
    <i name="e_0_energy">   -761.23069109 </i>
   </energy>
  </scstep>
  <scstep>
   <time name="total">   12.18   12.28</time>
   <energy>
    <i name="e_fr_energy">   -761.23062527 </i>
    <i name="e_wo_entrp">   -761.23062527 </i>
    <i name="e_0_energy">   -761.23062527 </i>
   </energy>
  </scstep>
  <scstep>
   <time name="total">   12.26   12.36</time>
   <energy>
    <i name="e_fr_energy">   -761.23080354 </i>
    <i name="e_wo_entrp">   -761.23080354 </i>
    <i name="e_0_energy">   -761.23080354 </i>
   </energy>
  </scstep>
  <scstep>
   <time name="total">   12.36   12.46</time>
   <energy>
    <i name="e_fr_energy">   -761.23063127 </i>
    <i name="e_wo_entrp">   -761.23063127 </i>
    <i name="e_0_energy">   -761.23063127 </i>
   </energy>
  </scstep>
  <scstep>
   <time name="total">   12.32   12.42</time>
   <energy>
    <i name="e_fr_energy">   -761.23077842 </i>
    <i name="e_wo_entrp">   -761.23077842 </i>
    <i name="e_0_energy">   -761.23077842 </i>
   </energy>
  </scstep>
  <scstep>
   <time name="total">   12.46   12.56</time>
   <energy>
    <i name="e_fr_energy">   -761.23075015 </i>
    <i name="e_wo_entrp">   -761.23075015 </i>
    <i name="e_0_energy">   -761.23075015 </i>
   </energy>
  </scstep>
  <scstep>
   <time name="total">   12.48   12.59</time>
   <energy>
    <i name="e_fr_energy">   -761.23086378 </i>
    <i name="e_wo_entrp">   -761.23086378 </i>
    <i name="e_0_energy">   -761.23086378 </i>
   </energy>
  </scstep>
  <scstep>
   <time name="total">   12.65   12.75</time>
   <energy>
    <i name="e_fr_energy">   -761.23081307 </i>
    <i name="e_wo_entrp">   -761.23081307 </i>
    <i name="e_0_energy">   -761.23081307 </i>
   </energy>
  </scstep>
  <scstep>
   <time name="total">   12.66   12.77</time>
   <energy>
    <i name="e_fr_energy">   -761.23097288 </i>
    <i name="e_wo_entrp">   -761.23097288 </i>
    <i name="e_0_energy">   -761.23097288 </i>
   </energy>
  </scstep>
  <scstep>
   <time name="total">   12.72   12.82</time>
   <energy>
    <i name="e_fr_energy">   -761.23089312 </i>
    <i name="e_wo_entrp">   -761.23089312 </i>
    <i name="e_0_energy">   -761.23089312 </i>
   </energy>
  </scstep>
  <scstep>
   <time name="total">   12.76   12.86</time>
   <energy>
    <i name="e_fr_energy">   -761.23097228 </i>
    <i name="e_wo_entrp">   -761.23097228 </i>
    <i name="e_0_energy">   -761.23097228 </i>
   </energy>
  </scstep>
  <scstep>
   <time name="total">   12.77   12.88</time>
   <energy>
    <i name="e_fr_energy">   -761.23093811 </i>
    <i name="e_wo_entrp">   -761.23093811 </i>
    <i name="e_0_energy">   -761.23093811 </i>
   </energy>
  </scstep>
  <scstep>
   <time name="total">   12.91   13.02</time>
   <energy>
    <i name="e_fr_energy">   -761.23093978 </i>
    <i name="e_wo_entrp">   -761.23093978 </i>
    <i name="e_0_energy">   -761.23093978 </i>
   </energy>
  </scstep>
  <scstep>
   <time name="total">    7.30    7.36</time>
   <energy>
    <i name="e_fr_energy">   -739.32352219 </i>
    <i name="e_wo_entrp">   -739.32352219 </i>
    <i name="e_0_energy">   -739.32352219 </i>
   </energy>
  </scstep>
  <scstep>
   <time name="total">    8.78    8.85</time>
   <energy>
    <i name="e_fr_energy">   -760.65399483 </i>
    <i name="e_wo_entrp">   -760.65399483 </i>
    <i name="e_0_energy">   -760.65399483 </i>
   </energy>
  </scstep>
  <scstep>
   <time name="total">   10.00   10.09</time>
   <energy>
    <i name="e_fr_energy">   -761.76527432 </i>
    <i name="e_wo_entrp">   -761.76527432 </i>
    <i name="e_0_energy">   -761.76527432 </i>
   </energy>
  </scstep>
  <scstep>
   <time name="total">   10.05   10.13</time>
   <energy>
    <i name="e_fr_energy">   -762.19341978 </i>
    <i name="e_wo_entrp">   -762.19341978 </i>
    <i name="e_0_energy">   -762.19341978 </i>
   </energy>
  </scstep>
  <scstep>
   <time name="total">   10.57   10.66</time>
   <energy>
    <i name="e_fr_energy">   -762.52310819 </i>
    <i name="e_wo_entrp">   -762.52310819 </i>
    <i name="e_0_energy">   -762.52310819 </i>
   </energy>
  </scstep>
  <scstep>
   <time name="total">   11.85   11.95</time>
   <energy>
    <i name="e_fr_energy">   -762.64781670 </i>
    <i name="e_wo_entrp">   -762.64781670 </i>
    <i name="e_0_energy">   -762.64781670 </i>
   </energy>
  </scstep>
  <scstep>
   <time name="total">   11.85   11.95</time>
   <energy>
    <i name="e_fr_energy">   -762.71528692 </i>
    <i name="e_wo_entrp">   -762.71528692 </i>
    <i name="e_0_energy">   -762.71528692 </i>
   </energy>
  </scstep>
  <scstep>
   <time name="total">   12.00   12.11</time>
   <energy>
    <i name="e_fr_energy">   -762.77675457 </i>
    <i name="e_wo_entrp">   -762.77675457 </i>
    <i name="e_0_energy">   -762.77675457 </i>
   </energy>
  </scstep>
  <scstep>
   <time name="total">   12.49   12.59</time>
   <energy>
    <i name="e_fr_energy">   -762.78990395 </i>
    <i name="e_wo_entrp">   -762.78990395 </i>
    <i name="e_0_energy">   -762.78990395 </i>
   </energy>
  </scstep>
  <scstep>
   <time name="total">   12.48   12.59</time>
   <energy>
    <i name="e_fr_energy">   -762.79210910 </i>
    <i name="e_wo_entrp">   -762.79210910 </i>
    <i name="e_0_energy">   -762.79210910 </i>
   </energy>
  </scstep>
  <scstep>
   <time name="total">   12.37   12.47</time>
   <energy>
    <i name="e_fr_energy">   -762.78928513 </i>
    <i name="e_wo_entrp">   -762.78928513 </i>
    <i name="e_0_energy">   -762.78928513 </i>
   </energy>
  </scstep>
  <scstep>
   <time name="total">   12.77   12.88</time>
   <energy>
    <i name="e_fr_energy">   -762.78276273 </i>
    <i name="e_wo_entrp">   -762.78276273 </i>
    <i name="e_0_energy">   -762.78276273 </i>
   </energy>
  </scstep>
  <scstep>
   <time name="total">   12.51   12.61</time>
   <energy>
    <i name="e_fr_energy">   -762.78158972 </i>
    <i name="e_wo_entrp">   -762.78158972 </i>
    <i name="e_0_energy">   -762.78158972 </i>
   </energy>
  </scstep>
  <scstep>
   <time name="total">   12.54   12.64</time>
   <energy>
    <i name="e_fr_energy">   -762.78131156 </i>
    <i name="e_wo_entrp">   -762.78131156 </i>
    <i name="e_0_energy">   -762.78131156 </i>
   </energy>
  </scstep>
  <scstep>
   <time name="total">   12.76   12.86</time>
   <energy>
    <i name="e_fr_energy">   -762.78245760 </i>
    <i name="e_wo_entrp">   -762.78245760 </i>
    <i name="e_0_energy">   -762.78245760 </i>
   </energy>
  </scstep>
  <scstep>
   <time name="total">   12.90   13.01</time>
   <energy>
    <i name="e_fr_energy">   -762.78173510 </i>
    <i name="e_wo_entrp">   -762.78173510 </i>
    <i name="e_0_energy">   -762.78173510 </i>
   </energy>
  </scstep>
  <scstep>
   <time name="total">   12.81   12.92</time>
   <energy>
    <i name="e_fr_energy">   -762.78300395 </i>
    <i name="e_wo_entrp">   -762.78300395 </i>
    <i name="e_0_energy">   -762.78300395 </i>
   </energy>
  </scstep>
  <scstep>
   <time name="total">   12.86   12.96</time>
   <energy>
    <i name="e_fr_energy">   -762.78242364 </i>
    <i name="e_wo_entrp">   -762.78242364 </i>
    <i name="e_0_energy">   -762.78242364 </i>
   </energy>
  </scstep>
  <scstep>
   <time name="total">   12.89   13.00</time>
   <energy>
    <i name="e_fr_energy">   -762.78304642 </i>
    <i name="e_wo_entrp">   -762.78304642 </i>
    <i name="e_0_energy">   -762.78304642 </i>
   </energy>
  </scstep>
  <scstep>
   <time name="total">   12.89   13.00</time>
   <energy>
    <i name="e_fr_energy">   -762.78215599 </i>
    <i name="e_wo_entrp">   -762.78215599 </i>
    <i name="e_0_energy">   -762.78215599 </i>
   </energy>
  </scstep>
  <scstep>
   <time name="total">   12.93   13.04</time>
   <energy>
    <i name="e_fr_energy">   -762.78291523 </i>
    <i name="e_wo_entrp">   -762.78291523 </i>
    <i name="e_0_energy">   -762.78291523 </i>
   </energy>
  </scstep>
  <scstep>
   <time name="total">   12.99   13.10</time>
   <energy>
    <i name="e_fr_energy">   -762.78222681 </i>
    <i name="e_wo_entrp">   -762.78222681 </i>
    <i name="e_0_energy">   -762.78222681 </i>
   </energy>
  </scstep>
  <scstep>
   <time name="total">    7.29    7.36</time>
   <energy>
    <i name="e_fr_energy">   -740.45045163 </i>
    <i name="e_wo_entrp">   -740.45045163 </i>
    <i name="e_0_energy">   -740.45045163 </i>
   </energy>
  </scstep>
  <scstep>
   <time name="total">    9.30    9.38</time>
   <energy>
    <i name="e_fr_energy">   -761.04657031 </i>
    <i name="e_wo_entrp">   -761.04657031 </i>
    <i name="e_0_energy">   -761.04657031 </i>
   </energy>
  </scstep>
  <scstep>
   <time name="total">    9.90    9.99</time>
   <energy>
    <i name="e_fr_energy">   -761.41326889 </i>
    <i name="e_wo_entrp">   -761.41326889 </i>
    <i name="e_0_energy">   -761.41326889 </i>
   </energy>
  </scstep>
  <scstep>
   <time name="total">   10.10   10.19</time>
   <energy>
    <i name="e_fr_energy">   -761.52404112 </i>
    <i name="e_wo_entrp">   -761.52404112 </i>
    <i name="e_0_energy">   -761.52404112 </i>
   </energy>
  </scstep>
  <scstep>
   <time name="total">   10.88   10.97</time>
   <energy>
    <i name="e_fr_energy">   -761.51464609 </i>
    <i name="e_wo_entrp">   -761.51464609 </i>
    <i name="e_0_energy">   -761.51464609 </i>
   </energy>
  </scstep>
  <scstep>
   <time name="total">   11.72   11.83</time>
   <energy>
    <i name="e_fr_energy">   -761.59381044 </i>
    <i name="e_wo_entrp">   -761.59381044 </i>
    <i name="e_0_energy">   -761.59381044 </i>
   </energy>
  </scstep>
  <scstep>
   <time name="total">   12.14   12.24</time>
   <energy>
    <i name="e_fr_energy">   -761.68682198 </i>
    <i name="e_wo_entrp">   -761.68682198 </i>
    <i name="e_0_energy">   -761.68682198 </i>
   </energy>
  </scstep>
  <scstep>
   <time name="total">   12.33   12.43</time>
   <energy>
    <i name="e_fr_energy">   -761.76282205 </i>
    <i name="e_wo_entrp">   -761.76282205 </i>
    <i name="e_0_energy">   -761.76282205 </i>
   </energy>
  </scstep>
  <scstep>
   <time name="total">   12.48   12.58</time>
   <energy>
    <i name="e_fr_energy">   -761.77308293 </i>
    <i name="e_wo_entrp">   -761.77308293 </i>
    <i name="e_0_energy">   -761.77308293 </i>
   </energy>
  </scstep>
  <scstep>
   <time name="total">   12.37   12.48</time>
   <energy>
    <i name="e_fr_energy">   -761.78419836 </i>
    <i name="e_wo_entrp">   -761.78419836 </i>
    <i name="e_0_energy">   -761.78419836 </i>
   </energy>
  </scstep>
  <scstep>
   <time name="total">   12.40   12.50</time>
   <energy>
    <i name="e_fr_energy">   -761.78750226 </i>
    <i name="e_wo_entrp">   -761.78750226 </i>
    <i name="e_0_energy">   -761.78750226 </i>
   </energy>
  </scstep>
  <scstep>
   <time name="total">   12.25   12.35</time>
   <energy>
    <i name="e_fr_energy">   -761.78863349 </i>
    <i name="e_wo_entrp">   -761.78863349 </i>
    <i name="e_0_energy">   -761.78863349 </i>
   </energy>
  </scstep>
  <scstep>
   <time name="total">   12.15   12.25</time>
   <energy>
    <i name="e_fr_energy">   -761.78875675 </i>
    <i name="e_wo_entrp">   -761.78875675 </i>
    <i name="e_0_energy">   -761.78875675 </i>
   </energy>
  </scstep>
  <scstep>
   <time name="total">   12.19   12.29</time>
   <energy>
    <i name="e_fr_energy">   -761.78913472 </i>
    <i name="e_wo_entrp">   -761.78913472 </i>
    <i name="e_0_energy">   -761.78913472 </i>
   </energy>
  </scstep>
  <scstep>
   <time name="total">   12.16   12.26</time>
   <energy>
    <i name="e_fr_energy">   -761.78921163 </i>
    <i name="e_wo_entrp">   -761.78921163 </i>
    <i name="e_0_energy">   -761.78921163 </i>
   </energy>
  </scstep>
  <scstep>
   <time name="total">   12.26   12.36</time>
   <energy>
    <i name="e_fr_energy">   -761.78926651 </i>
    <i name="e_wo_entrp">   -761.78926651 </i>
    <i name="e_0_energy">   -761.78926651 </i>
   </energy>
  </scstep>
  <scstep>
   <time name="total">   12.28   12.38</time>
   <energy>
    <i name="e_fr_energy">   -761.78939123 </i>
    <i name="e_wo_entrp">   -761.78939123 </i>
    <i name="e_0_energy">   -761.78939123 </i>
   </energy>
  </scstep>
  <scstep>
   <time name="total">   12.33   12.44</time>
   <energy>
    <i name="e_fr_energy">   -761.78931197 </i>
    <i name="e_wo_entrp">   -761.78931197 </i>
    <i name="e_0_energy">   -761.78931197 </i>
   </energy>
  </scstep>
  <scstep>
   <time name="total">   12.34   12.44</time>
   <energy>
    <i name="e_fr_energy">   -761.78949435 </i>
    <i name="e_wo_entrp">   -761.78949435 </i>
    <i name="e_0_energy">   -761.78949435 </i>
   </energy>
  </scstep>
  <scstep>
   <time name="total">   12.42   12.52</time>
   <energy>
    <i name="e_fr_energy">   -761.78937567 </i>
    <i name="e_wo_entrp">   -761.78937567 </i>
    <i name="e_0_energy">   -761.78937567 </i>
   </energy>
  </scstep>
  <scstep>
   <time name="total">   12.58   12.69</time>
   <energy>
    <i name="e_fr_energy">   -761.78955909 </i>
    <i name="e_wo_entrp">   -761.78955909 </i>
    <i name="e_0_energy">   -761.78955909 </i>
   </energy>
  </scstep>
  <scstep>
   <time name="total">    7.31    7.37</time>
   <energy>
    <i name="e_fr_energy">   -739.84329751 </i>
    <i name="e_wo_entrp">   -739.84329751 </i>
    <i name="e_0_energy">   -739.84329751 </i>
   </energy>
  </scstep>
  <scstep>
   <time name="total">    9.35    9.43</time>
   <energy>
    <i name="e_fr_energy">   -760.53473619 </i>
    <i name="e_wo_entrp">   -760.53473619 </i>
    <i name="e_0_energy">   -760.53473619 </i>
   </energy>
  </scstep>
  <scstep>
   <time name="total">    9.93   10.01</time>
   <energy>
    <i name="e_fr_energy">   -760.89028140 </i>
    <i name="e_wo_entrp">   -760.89028140 </i>
    <i name="e_0_energy">   -760.89028140 </i>
   </energy>
  </scstep>
  <scstep>
   <time name="total">   10.18   10.26</time>
   <energy>
    <i name="e_fr_energy">   -760.96640379 </i>
    <i name="e_wo_entrp">   -760.96640379 </i>
    <i name="e_0_energy">   -760.96640379 </i>
   </energy>
  </scstep>
  <scstep>
   <time name="total">   10.43   10.52</time>
   <energy>
    <i name="e_fr_energy">   -760.95645047 </i>
    <i name="e_wo_entrp">   -760.95645047 </i>
    <i name="e_0_energy">   -760.95645047 </i>
   </energy>
  </scstep>
  <scstep>
   <time name="total">   11.79   11.89</time>
   <energy>
    <i name="e_fr_energy">   -761.04109289 </i>
    <i name="e_wo_entrp">   -761.04109289 </i>
    <i name="e_0_energy">   -761.04109289 </i>
   </energy>
  </scstep>
  <scstep>
   <time name="total">   12.13   12.23</time>
   <energy>
    <i name="e_fr_energy">   -761.13026606 </i>
    <i name="e_wo_entrp">   -761.13026606 </i>
    <i name="e_0_energy">   -761.13026606 </i>
   </energy>
  </scstep>
  <scstep>
   <time name="total">   12.35   12.45</time>
   <energy>
    <i name="e_fr_energy">   -761.20897283 </i>
    <i name="e_wo_entrp">   -761.20897283 </i>
    <i name="e_0_energy">   -761.20897283 </i>
   </energy>
  </scstep>
  <scstep>
   <time name="total">   12.56   12.66</time>
   <energy>
    <i name="e_fr_energy">   -761.21662903 </i>
    <i name="e_wo_entrp">   -761.21662903 </i>
    <i name="e_0_energy">   -761.21662903 </i>
   </energy>
  </scstep>
  <scstep>
   <time name="total">   12.50   12.62</time>
   <energy>
    <i name="e_fr_energy">   -761.22690059 </i>
    <i name="e_wo_entrp">   -761.22690059 </i>
    <i name="e_0_energy">   -761.22690059 </i>
   </energy>
  </scstep>
  <scstep>
   <time name="total">   12.35   12.45</time>
   <energy>
    <i name="e_fr_energy">   -761.22883615 </i>
    <i name="e_wo_entrp">   -761.22883615 </i>
    <i name="e_0_energy">   -761.22883615 </i>
   </energy>
  </scstep>
  <scstep>
   <time name="total">   12.27   12.37</time>
   <energy>
    <i name="e_fr_energy">   -761.22968388 </i>
    <i name="e_wo_entrp">   -761.22968388 </i>
    <i name="e_0_energy">   -761.22968388 </i>
   </energy>
  </scstep>
  <scstep>
   <time name="total">   12.20   12.30</time>
   <energy>
    <i name="e_fr_energy">   -761.23021333 </i>
    <i name="e_wo_entrp">   -761.23021333 </i>
    <i name="e_0_energy">   -761.23021333 </i>
   </energy>
  </scstep>
  <scstep>
   <time name="total">   12.20   12.30</time>
   <energy>
    <i name="e_fr_energy">   -761.23048861 </i>
    <i name="e_wo_entrp">   -761.23048861 </i>
    <i name="e_0_energy">   -761.23048861 </i>
   </energy>
  </scstep>
  <scstep>
   <time name="total">   12.14   12.25</time>
   <energy>
    <i name="e_fr_energy">   -761.23076956 </i>
    <i name="e_wo_entrp">   -761.23076956 </i>
    <i name="e_0_energy">   -761.23076956 </i>
   </energy>
  </scstep>
  <scstep>
   <time name="total">   12.15   12.25</time>
   <energy>
    <i name="e_fr_energy">   -761.23065394 </i>
    <i name="e_wo_entrp">   -761.23065394 </i>
    <i name="e_0_energy">   -761.23065394 </i>
   </energy>
  </scstep>
  <scstep>
   <time name="total">   12.22   12.32</time>
   <energy>
    <i name="e_fr_energy">   -761.23085446 </i>
    <i name="e_wo_entrp">   -761.23085446 </i>
    <i name="e_0_energy">   -761.23085446 </i>
   </energy>
  </scstep>
  <scstep>
   <time name="total">   12.29   12.39</time>
   <energy>
    <i name="e_fr_energy">   -761.23073146 </i>
    <i name="e_wo_entrp">   -761.23073146 </i>
    <i name="e_0_energy">   -761.23073146 </i>
   </energy>
  </scstep>
  <scstep>
   <time name="total">   12.43   12.54</time>
   <energy>
    <i name="e_fr_energy">   -761.23086627 </i>
    <i name="e_wo_entrp">   -761.23086627 </i>
    <i name="e_0_energy">   -761.23086627 </i>
   </energy>
  </scstep>
  <scstep>
   <time name="total">   12.42   12.53</time>
   <energy>
    <i name="e_fr_energy">   -761.23081178 </i>
    <i name="e_wo_entrp">   -761.23081178 </i>
    <i name="e_0_energy">   -761.23081178 </i>
   </energy>
  </scstep>
  <scstep>
   <time name="total">   12.53   12.64</time>
   <energy>
    <i name="e_fr_energy">   -761.23086938 </i>
    <i name="e_wo_entrp">   -761.23086938 </i>
    <i name="e_0_energy">   -761.23086938 </i>
   </energy>
  </scstep>
  <scstep>
   <time name="total">   12.62   12.73</time>
   <energy>
    <i name="e_fr_energy">   -761.23086170 </i>
    <i name="e_wo_entrp">   -761.23086170 </i>
    <i name="e_0_energy">   -761.23086170 </i>
   </energy>
  </scstep>
  <scstep>
   <time name="total">   12.64   12.74</time>
   <energy>
    <i name="e_fr_energy">   -761.23096176 </i>
    <i name="e_wo_entrp">   -761.23096176 </i>
    <i name="e_0_energy">   -761.23096176 </i>
   </energy>
  </scstep>
  <scstep>
   <time name="total">   12.78   12.88</time>
   <energy>
    <i name="e_fr_energy">   -761.23087452 </i>
    <i name="e_wo_entrp">   -761.23087452 </i>
    <i name="e_0_energy">   -761.23087452 </i>
   </energy>
  </scstep>
  <scstep>
   <time name="total">   12.75   12.85</time>
   <energy>
    <i name="e_fr_energy">   -761.23101785 </i>
    <i name="e_wo_entrp">   -761.23101785 </i>
    <i name="e_0_energy">   -761.23101785 </i>
   </energy>
  </scstep>
  <scstep>
   <time name="total">    7.30    7.36</time>
   <energy>
    <i name="e_fr_energy">   -739.32351968 </i>
    <i name="e_wo_entrp">   -739.32351968 </i>
    <i name="e_0_energy">   -739.32351968 </i>
   </energy>
  </scstep>
  <scstep>
   <time name="total">    8.79    8.86</time>
   <energy>
    <i name="e_fr_energy">   -760.65541899 </i>
    <i name="e_wo_entrp">   -760.65541899 </i>
    <i name="e_0_energy">   -760.65541899 </i>
   </energy>
  </scstep>
  <scstep>
   <time name="total">    9.98   10.07</time>
   <energy>
    <i name="e_fr_energy">   -761.76389642 </i>
    <i name="e_wo_entrp">   -761.76389642 </i>
    <i name="e_0_energy">   -761.76389642 </i>
   </energy>
  </scstep>
  <scstep>
   <time name="total">   10.07   10.16</time>
   <energy>
    <i name="e_fr_energy">   -762.19315169 </i>
    <i name="e_wo_entrp">   -762.19315169 </i>
    <i name="e_0_energy">   -762.19315169 </i>
   </energy>
  </scstep>
  <scstep>
   <time name="total">   10.52   10.61</time>
   <energy>
    <i name="e_fr_energy">   -762.52309324 </i>
    <i name="e_wo_entrp">   -762.52309324 </i>
    <i name="e_0_energy">   -762.52309324 </i>
   </energy>
  </scstep>
  <scstep>
   <time name="total">   11.88   11.98</time>
   <energy>
    <i name="e_fr_energy">   -762.64787548 </i>
    <i name="e_wo_entrp">   -762.64787548 </i>
    <i name="e_0_energy">   -762.64787548 </i>
   </energy>
  </scstep>
  <scstep>
   <time name="total">   11.85   11.94</time>
   <energy>
    <i name="e_fr_energy">   -762.71538038 </i>
    <i name="e_wo_entrp">   -762.71538038 </i>
    <i name="e_0_energy">   -762.71538038 </i>
   </energy>
  </scstep>
  <scstep>
   <time name="total">   12.00   12.11</time>
   <energy>
    <i name="e_fr_energy">   -762.77696175 </i>
    <i name="e_wo_entrp">   -762.77696175 </i>
    <i name="e_0_energy">   -762.77696175 </i>
   </energy>
  </scstep>
  <scstep>
   <time name="total">   12.51   12.62</time>
   <energy>
    <i name="e_fr_energy">   -762.79007748 </i>
    <i name="e_wo_entrp">   -762.79007748 </i>
    <i name="e_0_energy">   -762.79007748 </i>
   </energy>
  </scstep>
  <scstep>
   <time name="total">   12.40   12.50</time>
   <energy>
    <i name="e_fr_energy">   -762.79224590 </i>
    <i name="e_wo_entrp">   -762.79224590 </i>
    <i name="e_0_energy">   -762.79224590 </i>
   </energy>
  </scstep>
  <scstep>
   <time name="total">   12.34   12.44</time>
   <energy>
    <i name="e_fr_energy">   -762.78951627 </i>
    <i name="e_wo_entrp">   -762.78951627 </i>
    <i name="e_0_energy">   -762.78951627 </i>
   </energy>
  </scstep>
  <scstep>
   <time name="total">   12.78   12.88</time>
   <energy>
    <i name="e_fr_energy">   -762.78286974 </i>
    <i name="e_wo_entrp">   -762.78286974 </i>
    <i name="e_0_energy">   -762.78286974 </i>
   </energy>
  </scstep>
  <scstep>
   <time name="total">   12.57   12.67</time>
   <energy>
    <i name="e_fr_energy">   -762.78176214 </i>
    <i name="e_wo_entrp">   -762.78176214 </i>
    <i name="e_0_energy">   -762.78176214 </i>
   </energy>
  </scstep>
  <scstep>
   <time name="total">   12.59   12.70</time>
   <energy>
    <i name="e_fr_energy">   -762.78149117 </i>
    <i name="e_wo_entrp">   -762.78149117 </i>
    <i name="e_0_energy">   -762.78149117 </i>
   </energy>
  </scstep>
  <scstep>
   <time name="total">   12.69   12.80</time>
   <energy>
    <i name="e_fr_energy">   -762.78256376 </i>
    <i name="e_wo_entrp">   -762.78256376 </i>
    <i name="e_0_energy">   -762.78256376 </i>
   </energy>
  </scstep>
  <scstep>
   <time name="total">   12.89   13.00</time>
   <energy>
    <i name="e_fr_energy">   -762.78196845 </i>
    <i name="e_wo_entrp">   -762.78196845 </i>
    <i name="e_0_energy">   -762.78196845 </i>
   </energy>
  </scstep>
  <scstep>
   <time name="total">   12.80   12.90</time>
   <energy>
    <i name="e_fr_energy">   -762.78322822 </i>
    <i name="e_wo_entrp">   -762.78322822 </i>
    <i name="e_0_energy">   -762.78322822 </i>
   </energy>
  </scstep>
  <scstep>
   <time name="total">   12.87   12.97</time>
   <energy>
    <i name="e_fr_energy">   -762.78261817 </i>
    <i name="e_wo_entrp">   -762.78261817 </i>
    <i name="e_0_energy">   -762.78261817 </i>
   </energy>
  </scstep>
  <scstep>
   <time name="total">   12.86   12.97</time>
   <energy>
    <i name="e_fr_energy">   -762.78301256 </i>
    <i name="e_wo_entrp">   -762.78301256 </i>
    <i name="e_0_energy">   -762.78301256 </i>
   </energy>
  </scstep>
  <scstep>
   <time name="total">   12.91   13.02</time>
   <energy>
    <i name="e_fr_energy">   -762.78245476 </i>
    <i name="e_wo_entrp">   -762.78245476 </i>
    <i name="e_0_energy">   -762.78245476 </i>
   </energy>
  </scstep>
  <scstep>
   <time name="total">   12.98   13.08</time>
   <energy>
    <i name="e_fr_energy">   -762.78290143 </i>
    <i name="e_wo_entrp">   -762.78290143 </i>
    <i name="e_0_energy">   -762.78290143 </i>
   </energy>
  </scstep>
  <scstep>
   <time name="total">   13.03   13.14</time>
   <energy>
    <i name="e_fr_energy">   -762.78255413 </i>
    <i name="e_wo_entrp">   -762.78255413 </i>
    <i name="e_0_energy">   -762.78255413 </i>
   </energy>
  </scstep>
  <scstep>
   <time name="total">    7.28    7.34</time>
   <energy>
    <i name="e_fr_energy">   -740.45609524 </i>
    <i name="e_wo_entrp">   -740.45609524 </i>
    <i name="e_0_energy">   -740.45609524 </i>
   </energy>
  </scstep>
  <scstep>
   <time name="total">    9.27    9.35</time>
   <energy>
    <i name="e_fr_energy">   -761.04407438 </i>
    <i name="e_wo_entrp">   -761.04407438 </i>
    <i name="e_0_energy">   -761.04407438 </i>
   </energy>
  </scstep>
  <scstep>
   <time name="total">    9.91    9.99</time>
   <energy>
    <i name="e_fr_energy">   -761.41580645 </i>
    <i name="e_wo_entrp">   -761.41580645 </i>
    <i name="e_0_energy">   -761.41580645 </i>
   </energy>
  </scstep>
  <scstep>
   <time name="total">   10.11   10.19</time>
   <energy>
    <i name="e_fr_energy">   -761.52512603 </i>
    <i name="e_wo_entrp">   -761.52512603 </i>
    <i name="e_0_energy">   -761.52512603 </i>
   </energy>
  </scstep>
  <scstep>
   <time name="total">   10.87   10.97</time>
   <energy>
    <i name="e_fr_energy">   -761.51584568 </i>
    <i name="e_wo_entrp">   -761.51584568 </i>
    <i name="e_0_energy">   -761.51584568 </i>
   </energy>
  </scstep>
  <scstep>
   <time name="total">   11.75   11.84</time>
   <energy>
    <i name="e_fr_energy">   -761.59484742 </i>
    <i name="e_wo_entrp">   -761.59484742 </i>
    <i name="e_0_energy">   -761.59484742 </i>
   </energy>
  </scstep>
  <scstep>
   <time name="total">   12.16   12.26</time>
   <energy>
    <i name="e_fr_energy">   -761.68654012 </i>
    <i name="e_wo_entrp">   -761.68654012 </i>
    <i name="e_0_energy">   -761.68654012 </i>
   </energy>
  </scstep>
  <scstep>
   <time name="total">   12.35   12.45</time>
   <energy>
    <i name="e_fr_energy">   -761.76229340 </i>
    <i name="e_wo_entrp">   -761.76229340 </i>
    <i name="e_0_energy">   -761.76229340 </i>
   </energy>
  </scstep>
  <scstep>
   <time name="total">   12.46   12.56</time>
   <energy>
    <i name="e_fr_energy">   -761.77305370 </i>
    <i name="e_wo_entrp">   -761.77305370 </i>
    <i name="e_0_energy">   -761.77305370 </i>
   </energy>
  </scstep>
  <scstep>
   <time name="total">   12.43   12.54</time>
   <energy>
    <i name="e_fr_energy">   -761.78419957 </i>
    <i name="e_wo_entrp">   -761.78419957 </i>
    <i name="e_0_energy">   -761.78419957 </i>
   </energy>
  </scstep>
  <scstep>
   <time name="total">   12.38   12.48</time>
   <energy>
    <i name="e_fr_energy">   -761.78723820 </i>
    <i name="e_wo_entrp">   -761.78723820 </i>
    <i name="e_0_energy">   -761.78723820 </i>
   </energy>
  </scstep>
  <scstep>
   <time name="total">   12.27   12.38</time>
   <energy>
    <i name="e_fr_energy">   -761.78840406 </i>
    <i name="e_wo_entrp">   -761.78840406 </i>
    <i name="e_0_energy">   -761.78840406 </i>
   </energy>
  </scstep>
  <scstep>
   <time name="total">   12.19   12.29</time>
   <energy>
    <i name="e_fr_energy">   -761.78863711 </i>
    <i name="e_wo_entrp">   -761.78863711 </i>
    <i name="e_0_energy">   -761.78863711 </i>
   </energy>
  </scstep>
  <scstep>
   <time name="total">   12.22   12.32</time>
   <energy>
    <i name="e_fr_energy">   -761.78895206 </i>
    <i name="e_wo_entrp">   -761.78895206 </i>
    <i name="e_0_energy">   -761.78895206 </i>
   </energy>
  </scstep>
  <scstep>
   <time name="total">   12.30   12.40</time>
   <energy>
    <i name="e_fr_energy">   -761.78905871 </i>
    <i name="e_wo_entrp">   -761.78905871 </i>
    <i name="e_0_energy">   -761.78905871 </i>
   </energy>
  </scstep>
  <scstep>
   <time name="total">   12.19   12.29</time>
   <energy>
    <i name="e_fr_energy">   -761.78904349 </i>
    <i name="e_wo_entrp">   -761.78904349 </i>
    <i name="e_0_energy">   -761.78904349 </i>
   </energy>
  </scstep>
  <scstep>
   <time name="total">   12.26   12.37</time>
   <energy>
    <i name="e_fr_energy">   -761.78927062 </i>
    <i name="e_wo_entrp">   -761.78927062 </i>
    <i name="e_0_energy">   -761.78927062 </i>
   </energy>
  </scstep>
  <scstep>
   <time name="total">   12.30   12.40</time>
   <energy>
    <i name="e_fr_energy">   -761.78912950 </i>
    <i name="e_wo_entrp">   -761.78912950 </i>
    <i name="e_0_energy">   -761.78912950 </i>
   </energy>
  </scstep>
  <scstep>
   <time name="total">   12.31   12.41</time>
   <energy>
    <i name="e_fr_energy">   -761.78939824 </i>
    <i name="e_wo_entrp">   -761.78939824 </i>
    <i name="e_0_energy">   -761.78939824 </i>
   </energy>
  </scstep>
  <scstep>
   <time name="total">   12.47   12.58</time>
   <energy>
    <i name="e_fr_energy">   -761.78919415 </i>
    <i name="e_wo_entrp">   -761.78919415 </i>
    <i name="e_0_energy">   -761.78919415 </i>
   </energy>
  </scstep>
  <scstep>
   <time name="total">   12.53   12.64</time>
   <energy>
    <i name="e_fr_energy">   -761.78943887 </i>
    <i name="e_wo_entrp">   -761.78943887 </i>
    <i name="e_0_energy">   -761.78943887 </i>
   </energy>
  </scstep>
  <scstep>
   <time name="total">    7.28    7.37</time>
   <energy>
    <i name="e_fr_energy">   -739.85240626 </i>
    <i name="e_wo_entrp">   -739.85240626 </i>
    <i name="e_0_energy">   -739.85240626 </i>
   </energy>
  </scstep>
  <scstep>
   <time name="total">    9.32    9.40</time>
   <energy>
    <i name="e_fr_energy">   -760.61818992 </i>
    <i name="e_wo_entrp">   -760.61818992 </i>
    <i name="e_0_energy">   -760.61818992 </i>
   </energy>
  </scstep>
  <scstep>
   <time name="total">    9.98   10.08</time>
   <energy>
    <i name="e_fr_energy">   -760.97129390 </i>
    <i name="e_wo_entrp">   -760.97129390 </i>
    <i name="e_0_energy">   -760.97129390 </i>
   </energy>
  </scstep>
  <scstep>
   <time name="total">   10.15   10.23</time>
   <energy>
    <i name="e_fr_energy">   -761.05130105 </i>
    <i name="e_wo_entrp">   -761.05130105 </i>
    <i name="e_0_energy">   -761.05130105 </i>
   </energy>
  </scstep>
  <scstep>
   <time name="total">   10.39   10.47</time>
   <energy>
    <i name="e_fr_energy">   -761.04164232 </i>
    <i name="e_wo_entrp">   -761.04164232 </i>
    <i name="e_0_energy">   -761.04164232 </i>
   </energy>
  </scstep>
  <scstep>
   <time name="total">   11.77   11.87</time>
   <energy>
    <i name="e_fr_energy">   -761.12585455 </i>
    <i name="e_wo_entrp">   -761.12585455 </i>
    <i name="e_0_energy">   -761.12585455 </i>
   </energy>
  </scstep>
  <scstep>
   <time name="total">   12.13   12.23</time>
   <energy>
    <i name="e_fr_energy">   -761.21478576 </i>
    <i name="e_wo_entrp">   -761.21478576 </i>
    <i name="e_0_energy">   -761.21478576 </i>
   </energy>
  </scstep>
  <scstep>
   <time name="total">   12.45   12.56</time>
   <energy>
    <i name="e_fr_energy">   -761.29343298 </i>
    <i name="e_wo_entrp">   -761.29343298 </i>
    <i name="e_0_energy">   -761.29343298 </i>
   </energy>
  </scstep>
  <scstep>
   <time name="total">   12.64   12.74</time>
   <energy>
    <i name="e_fr_energy">   -761.30113780 </i>
    <i name="e_wo_entrp">   -761.30113780 </i>
    <i name="e_0_energy">   -761.30113780 </i>
   </energy>
  </scstep>
  <scstep>
   <time name="total">   12.33   12.44</time>
   <energy>
    <i name="e_fr_energy">   -761.31110055 </i>
    <i name="e_wo_entrp">   -761.31110055 </i>
    <i name="e_0_energy">   -761.31110055 </i>
   </energy>
  </scstep>
  <scstep>
   <time name="total">   12.35   12.45</time>
   <energy>
    <i name="e_fr_energy">   -761.31309526 </i>
    <i name="e_wo_entrp">   -761.31309526 </i>
    <i name="e_0_energy">   -761.31309526 </i>
   </energy>
  </scstep>
  <scstep>
   <time name="total">   12.25   12.35</time>
   <energy>
    <i name="e_fr_energy">   -761.31431200 </i>
    <i name="e_wo_entrp">   -761.31431200 </i>
    <i name="e_0_energy">   -761.31431200 </i>
   </energy>
  </scstep>
  <scstep>
   <time name="total">   12.20   12.31</time>
   <energy>
    <i name="e_fr_energy">   -761.31490867 </i>
    <i name="e_wo_entrp">   -761.31490867 </i>
    <i name="e_0_energy">   -761.31490867 </i>
   </energy>
  </scstep>
  <scstep>
   <time name="total">   12.22   12.32</time>
   <energy>
    <i name="e_fr_energy">   -761.31538770 </i>
    <i name="e_wo_entrp">   -761.31538770 </i>
    <i name="e_0_energy">   -761.31538770 </i>
   </energy>
  </scstep>
  <scstep>
   <time name="total">   12.16   12.26</time>
   <energy>
    <i name="e_fr_energy">   -761.31568087 </i>
    <i name="e_wo_entrp">   -761.31568087 </i>
    <i name="e_0_energy">   -761.31568087 </i>
   </energy>
  </scstep>
  <scstep>
   <time name="total">   12.18   12.28</time>
   <energy>
    <i name="e_fr_energy">   -761.31567234 </i>
    <i name="e_wo_entrp">   -761.31567234 </i>
    <i name="e_0_energy">   -761.31567234 </i>
   </energy>
  </scstep>
  <scstep>
   <time name="total">   12.31   12.41</time>
   <energy>
    <i name="e_fr_energy">   -761.31583175 </i>
    <i name="e_wo_entrp">   -761.31583175 </i>
    <i name="e_0_energy">   -761.31583175 </i>
   </energy>
  </scstep>
  <scstep>
   <time name="total">   12.35   12.46</time>
   <energy>
    <i name="e_fr_energy">   -761.31569594 </i>
    <i name="e_wo_entrp">   -761.31569594 </i>
    <i name="e_0_energy">   -761.31569594 </i>
   </energy>
  </scstep>
  <scstep>
   <time name="total">   12.40   12.51</time>
   <energy>
    <i name="e_fr_energy">   -761.31576404 </i>
    <i name="e_wo_entrp">   -761.31576404 </i>
    <i name="e_0_energy">   -761.31576404 </i>
   </energy>
  </scstep>
  <scstep>
   <time name="total">   12.47   12.58</time>
   <energy>
    <i name="e_fr_energy">   -761.31566450 </i>
    <i name="e_wo_entrp">   -761.31566450 </i>
    <i name="e_0_energy">   -761.31566450 </i>
   </energy>
  </scstep>
  <scstep>
   <time name="total">   12.76   12.87</time>
   <energy>
    <i name="e_fr_energy">   -761.31576497 </i>
    <i name="e_wo_entrp">   -761.31576497 </i>
    <i name="e_0_energy">   -761.31576497 </i>
   </energy>
  </scstep>
  <scstep>
   <time name="total">   12.65   12.75</time>
   <energy>
    <i name="e_fr_energy">   -761.31567251 </i>
    <i name="e_wo_entrp">   -761.31567251 </i>
    <i name="e_0_energy">   -761.31567251 </i>
   </energy>
  </scstep>
  <scstep>
   <time name="total">   12.65   12.75</time>
   <energy>
    <i name="e_fr_energy">   -761.31575379 </i>
    <i name="e_wo_entrp">   -761.31575379 </i>
    <i name="e_0_energy">   -761.31575379 </i>
   </energy>
  </scstep>
  <scstep>
   <time name="total">   12.68   12.79</time>
   <energy>
    <i name="e_fr_energy">   -761.31567268 </i>
    <i name="e_wo_entrp">   -761.31567268 </i>
    <i name="e_0_energy">   -761.31567268 </i>
   </energy>
  </scstep>
  <scstep>
   <time name="total">   12.79   12.90</time>
   <energy>
    <i name="e_fr_energy">   -761.31578664 </i>
    <i name="e_wo_entrp">   -761.31578664 </i>
    <i name="e_0_energy">   -761.31578664 </i>
   </energy>
  </scstep>
  <scstep>
   <time name="total">   12.78   12.88</time>
   <energy>
    <i name="e_fr_energy">   -761.31570649 </i>
    <i name="e_wo_entrp">   -761.31570649 </i>
    <i name="e_0_energy">   -761.31570649 </i>
   </energy>
  </scstep>
  <scstep>
   <time name="total">   12.85   12.96</time>
   <energy>
    <i name="e_fr_energy">   -761.31577387 </i>
    <i name="e_wo_entrp">   -761.31577387 </i>
    <i name="e_0_energy">   -761.31577387 </i>
   </energy>
  </scstep>
  <scstep>
   <time name="total">    7.29    7.35</time>
   <energy>
    <i name="e_fr_energy">   -739.32450624 </i>
    <i name="e_wo_entrp">   -739.32450624 </i>
    <i name="e_0_energy">   -739.32450624 </i>
   </energy>
  </scstep>
  <scstep>
   <time name="total">    8.78    8.85</time>
   <energy>
    <i name="e_fr_energy">   -760.66028696 </i>
    <i name="e_wo_entrp">   -760.66028696 </i>
    <i name="e_0_energy">   -760.66028696 </i>
   </energy>
  </scstep>
  <scstep>
   <time name="total">   10.02   10.10</time>
   <energy>
    <i name="e_fr_energy">   -761.76277118 </i>
    <i name="e_wo_entrp">   -761.76277118 </i>
    <i name="e_0_energy">   -761.76277118 </i>
   </energy>
  </scstep>
  <scstep>
   <time name="total">   10.06   10.15</time>
   <energy>
    <i name="e_fr_energy">   -762.19288855 </i>
    <i name="e_wo_entrp">   -762.19288855 </i>
    <i name="e_0_energy">   -762.19288855 </i>
   </energy>
  </scstep>
  <scstep>
   <time name="total">   10.58   10.67</time>
   <energy>
    <i name="e_fr_energy">   -762.52139866 </i>
    <i name="e_wo_entrp">   -762.52139866 </i>
    <i name="e_0_energy">   -762.52139866 </i>
   </energy>
  </scstep>
  <scstep>
   <time name="total">   11.85   11.95</time>
   <energy>
    <i name="e_fr_energy">   -762.64681222 </i>
    <i name="e_wo_entrp">   -762.64681222 </i>
    <i name="e_0_energy">   -762.64681222 </i>
   </energy>
  </scstep>
  <scstep>
   <time name="total">   11.84   11.94</time>
   <energy>
    <i name="e_fr_energy">   -762.71517314 </i>
    <i name="e_wo_entrp">   -762.71517314 </i>
    <i name="e_0_energy">   -762.71517314 </i>
   </energy>
  </scstep>
  <scstep>
   <time name="total">   12.01   12.11</time>
   <energy>
    <i name="e_fr_energy">   -762.77721871 </i>
    <i name="e_wo_entrp">   -762.77721871 </i>
    <i name="e_0_energy">   -762.77721871 </i>
   </energy>
  </scstep>
  <scstep>
   <time name="total">   12.54   12.64</time>
   <energy>
    <i name="e_fr_energy">   -762.79029957 </i>
    <i name="e_wo_entrp">   -762.79029957 </i>
    <i name="e_0_energy">   -762.79029957 </i>
   </energy>
  </scstep>
  <scstep>
   <time name="total">   12.44   12.55</time>
   <energy>
    <i name="e_fr_energy">   -762.79233806 </i>
    <i name="e_wo_entrp">   -762.79233806 </i>
    <i name="e_0_energy">   -762.79233806 </i>
   </energy>
  </scstep>
  <scstep>
   <time name="total">   12.32   12.42</time>
   <energy>
    <i name="e_fr_energy">   -762.78932192 </i>
    <i name="e_wo_entrp">   -762.78932192 </i>
    <i name="e_0_energy">   -762.78932192 </i>
   </energy>
  </scstep>
  <scstep>
   <time name="total">   12.73   12.84</time>
   <energy>
    <i name="e_fr_energy">   -762.78284824 </i>
    <i name="e_wo_entrp">   -762.78284824 </i>
    <i name="e_0_energy">   -762.78284824 </i>
   </energy>
  </scstep>
  <scstep>
   <time name="total">   12.51   12.62</time>
   <energy>
    <i name="e_fr_energy">   -762.78167792 </i>
    <i name="e_wo_entrp">   -762.78167792 </i>
    <i name="e_0_energy">   -762.78167792 </i>
   </energy>
  </scstep>
  <scstep>
   <time name="total">   12.58   12.68</time>
   <energy>
    <i name="e_fr_energy">   -762.78155950 </i>
    <i name="e_wo_entrp">   -762.78155950 </i>
    <i name="e_0_energy">   -762.78155950 </i>
   </energy>
  </scstep>
  <scstep>
   <time name="total">   12.67   12.77</time>
   <energy>
    <i name="e_fr_energy">   -762.78256457 </i>
    <i name="e_wo_entrp">   -762.78256457 </i>
    <i name="e_0_energy">   -762.78256457 </i>
   </energy>
  </scstep>
  <scstep>
   <time name="total">   12.91   13.01</time>
   <energy>
    <i name="e_fr_energy">   -762.78195400 </i>
    <i name="e_wo_entrp">   -762.78195400 </i>
    <i name="e_0_energy">   -762.78195400 </i>
   </energy>
  </scstep>
  <scstep>
   <time name="total">   12.82   12.92</time>
   <energy>
    <i name="e_fr_energy">   -762.78319268 </i>
    <i name="e_wo_entrp">   -762.78319268 </i>
    <i name="e_0_energy">   -762.78319268 </i>
   </energy>
  </scstep>
  <scstep>
   <time name="total">   12.88   12.98</time>
   <energy>
    <i name="e_fr_energy">   -762.78252980 </i>
    <i name="e_wo_entrp">   -762.78252980 </i>
    <i name="e_0_energy">   -762.78252980 </i>
   </energy>
  </scstep>
  <scstep>
   <time name="total">   12.84   12.94</time>
   <energy>
    <i name="e_fr_energy">   -762.78309587 </i>
    <i name="e_wo_entrp">   -762.78309587 </i>
    <i name="e_0_energy">   -762.78309587 </i>
   </energy>
  </scstep>
  <scstep>
   <time name="total">   12.95   13.06</time>
   <energy>
    <i name="e_fr_energy">   -762.78251379 </i>
    <i name="e_wo_entrp">   -762.78251379 </i>
    <i name="e_0_energy">   -762.78251379 </i>
   </energy>
  </scstep>
  <scstep>
   <time name="total">   12.87   12.98</time>
   <energy>
    <i name="e_fr_energy">   -762.78309228 </i>
    <i name="e_wo_entrp">   -762.78309228 </i>
    <i name="e_0_energy">   -762.78309228 </i>
   </energy>
  </scstep>
  <scstep>
   <time name="total">   13.01   13.12</time>
   <energy>
    <i name="e_fr_energy">   -762.78235277 </i>
    <i name="e_wo_entrp">   -762.78235277 </i>
    <i name="e_0_energy">   -762.78235277 </i>
   </energy>
  </scstep>
  <scstep>
   <time name="total">    7.30    7.36</time>
   <energy>
    <i name="e_fr_energy">   -740.45610138 </i>
    <i name="e_wo_entrp">   -740.45610138 </i>
    <i name="e_0_energy">   -740.45610138 </i>
   </energy>
  </scstep>
  <scstep>
   <time name="total">    9.28    9.36</time>
   <energy>
    <i name="e_fr_energy">   -761.04282149 </i>
    <i name="e_wo_entrp">   -761.04282149 </i>
    <i name="e_0_energy">   -761.04282149 </i>
   </energy>
  </scstep>
  <scstep>
   <time name="total">    9.92   10.01</time>
   <energy>
    <i name="e_fr_energy">   -761.41596441 </i>
    <i name="e_wo_entrp">   -761.41596441 </i>
    <i name="e_0_energy">   -761.41596441 </i>
   </energy>
  </scstep>
  <scstep>
   <time name="total">   10.10   10.18</time>
   <energy>
    <i name="e_fr_energy">   -761.52566414 </i>
    <i name="e_wo_entrp">   -761.52566414 </i>
    <i name="e_0_energy">   -761.52566414 </i>
   </energy>
  </scstep>
  <scstep>
   <time name="total">   10.89   10.98</time>
   <energy>
    <i name="e_fr_energy">   -761.51557394 </i>
    <i name="e_wo_entrp">   -761.51557394 </i>
    <i name="e_0_energy">   -761.51557394 </i>
   </energy>
  </scstep>
  <scstep>
   <time name="total">   11.73   11.83</time>
   <energy>
    <i name="e_fr_energy">   -761.59498868 </i>
    <i name="e_wo_entrp">   -761.59498868 </i>
    <i name="e_0_energy">   -761.59498868 </i>
   </energy>
  </scstep>
  <scstep>
   <time name="total">   12.16   12.26</time>
   <energy>
    <i name="e_fr_energy">   -761.68644572 </i>
    <i name="e_wo_entrp">   -761.68644572 </i>
    <i name="e_0_energy">   -761.68644572 </i>
   </energy>
  </scstep>
  <scstep>
   <time name="total">   12.37   12.47</time>
   <energy>
    <i name="e_fr_energy">   -761.76203689 </i>
    <i name="e_wo_entrp">   -761.76203689 </i>
    <i name="e_0_energy">   -761.76203689 </i>
   </energy>
  </scstep>
  <scstep>
   <time name="total">   12.47   12.58</time>
   <energy>
    <i name="e_fr_energy">   -761.77310466 </i>
    <i name="e_wo_entrp">   -761.77310466 </i>
    <i name="e_0_energy">   -761.77310466 </i>
   </energy>
  </scstep>
  <scstep>
   <time name="total">   12.39   12.49</time>
   <energy>
    <i name="e_fr_energy">   -761.78420293 </i>
    <i name="e_wo_entrp">   -761.78420293 </i>
    <i name="e_0_energy">   -761.78420293 </i>
   </energy>
  </scstep>
  <scstep>
   <time name="total">   12.39   12.49</time>
   <energy>
    <i name="e_fr_energy">   -761.78724184 </i>
    <i name="e_wo_entrp">   -761.78724184 </i>
    <i name="e_0_energy">   -761.78724184 </i>
   </energy>
  </scstep>
  <scstep>
   <time name="total">   12.25   12.35</time>
   <energy>
    <i name="e_fr_energy">   -761.78840615 </i>
    <i name="e_wo_entrp">   -761.78840615 </i>
    <i name="e_0_energy">   -761.78840615 </i>
   </energy>
  </scstep>
  <scstep>
   <time name="total">   12.23   12.33</time>
   <energy>
    <i name="e_fr_energy">   -761.78866112 </i>
    <i name="e_wo_entrp">   -761.78866112 </i>
    <i name="e_0_energy">   -761.78866112 </i>
   </energy>
  </scstep>
  <scstep>
   <time name="total">   12.21   12.31</time>
   <energy>
    <i name="e_fr_energy">   -761.78896322 </i>
    <i name="e_wo_entrp">   -761.78896322 </i>
    <i name="e_0_energy">   -761.78896322 </i>
   </energy>
  </scstep>
  <scstep>
   <time name="total">   12.25   12.35</time>
   <energy>
    <i name="e_fr_energy">   -761.78915286 </i>
    <i name="e_wo_entrp">   -761.78915286 </i>
    <i name="e_0_energy">   -761.78915286 </i>
   </energy>
  </scstep>
  <scstep>
   <time name="total">   12.28   12.39</time>
   <energy>
    <i name="e_fr_energy">   -761.78912792 </i>
    <i name="e_wo_entrp">   -761.78912792 </i>
    <i name="e_0_energy">   -761.78912792 </i>
   </energy>
  </scstep>
  <scstep>
   <time name="total">   12.32   12.43</time>
   <energy>
    <i name="e_fr_energy">   -761.78930597 </i>
    <i name="e_wo_entrp">   -761.78930597 </i>
    <i name="e_0_energy">   -761.78930597 </i>
   </energy>
  </scstep>
  <scstep>
   <time name="total">   12.38   12.48</time>
   <energy>
    <i name="e_fr_energy">   -761.78915680 </i>
    <i name="e_wo_entrp">   -761.78915680 </i>
    <i name="e_0_energy">   -761.78915680 </i>
   </energy>
  </scstep>
  <scstep>
   <time name="total">   12.41   12.51</time>
   <energy>
    <i name="e_fr_energy">   -761.78940456 </i>
    <i name="e_wo_entrp">   -761.78940456 </i>
    <i name="e_0_energy">   -761.78940456 </i>
   </energy>
  </scstep>
  <scstep>
   <time name="total">   12.51   12.62</time>
   <energy>
    <i name="e_fr_energy">   -761.78924803 </i>
    <i name="e_wo_entrp">   -761.78924803 </i>
    <i name="e_0_energy">   -761.78924803 </i>
   </energy>
  </scstep>
  <scstep>
   <time name="total">   12.62   12.72</time>
   <energy>
    <i name="e_fr_energy">   -761.78943509 </i>
    <i name="e_wo_entrp">   -761.78943509 </i>
    <i name="e_0_energy">   -761.78943509 </i>
   </energy>
  </scstep>
  <scstep>
   <time name="total">    7.28    7.34</time>
   <energy>
    <i name="e_fr_energy">   -739.85241044 </i>
    <i name="e_wo_entrp">   -739.85241044 </i>
    <i name="e_0_energy">   -739.85241044 </i>
   </energy>
  </scstep>
  <scstep>
   <time name="total">    9.36    9.44</time>
   <energy>
    <i name="e_fr_energy">   -760.61581159 </i>
    <i name="e_wo_entrp">   -760.61581159 </i>
    <i name="e_0_energy">   -760.61581159 </i>
   </energy>
  </scstep>
  <scstep>
   <time name="total">    9.95   10.04</time>
   <energy>
    <i name="e_fr_energy">   -760.97053236 </i>
    <i name="e_wo_entrp">   -760.97053236 </i>
    <i name="e_0_energy">   -760.97053236 </i>
   </energy>
  </scstep>
  <scstep>
   <time name="total">   10.16   10.25</time>
   <energy>
    <i name="e_fr_energy">   -761.05235305 </i>
    <i name="e_wo_entrp">   -761.05235305 </i>
    <i name="e_0_energy">   -761.05235305 </i>
   </energy>
  </scstep>
  <scstep>
   <time name="total">   10.38   10.46</time>
   <energy>
    <i name="e_fr_energy">   -761.04223411 </i>
    <i name="e_wo_entrp">   -761.04223411 </i>
    <i name="e_0_energy">   -761.04223411 </i>
   </energy>
  </scstep>
  <scstep>
   <time name="total">   11.76   11.86</time>
   <energy>
    <i name="e_fr_energy">   -761.12565987 </i>
    <i name="e_wo_entrp">   -761.12565987 </i>
    <i name="e_0_energy">   -761.12565987 </i>
   </energy>
  </scstep>
  <scstep>
   <time name="total">   12.11   12.21</time>
   <energy>
    <i name="e_fr_energy">   -761.21436812 </i>
    <i name="e_wo_entrp">   -761.21436812 </i>
    <i name="e_0_energy">   -761.21436812 </i>
   </energy>
  </scstep>
  <scstep>
   <time name="total">   12.39   12.49</time>
   <energy>
    <i name="e_fr_energy">   -761.29319209 </i>
    <i name="e_wo_entrp">   -761.29319209 </i>
    <i name="e_0_energy">   -761.29319209 </i>
   </energy>
  </scstep>
  <scstep>
   <time name="total">   12.77   12.88</time>
   <energy>
    <i name="e_fr_energy">   -761.30101448 </i>
    <i name="e_wo_entrp">   -761.30101448 </i>
    <i name="e_0_energy">   -761.30101448 </i>
   </energy>
  </scstep>
  <scstep>
   <time name="total">   12.39   12.49</time>
   <energy>
    <i name="e_fr_energy">   -761.31087656 </i>
    <i name="e_wo_entrp">   -761.31087656 </i>
    <i name="e_0_energy">   -761.31087656 </i>
   </energy>
  </scstep>
  <scstep>
   <time name="total">   12.38   12.48</time>
   <energy>
    <i name="e_fr_energy">   -761.31297934 </i>
    <i name="e_wo_entrp">   -761.31297934 </i>
    <i name="e_0_energy">   -761.31297934 </i>
   </energy>
  </scstep>
  <scstep>
   <time name="total">   12.25   12.35</time>
   <energy>
    <i name="e_fr_energy">   -761.31420943 </i>
    <i name="e_wo_entrp">   -761.31420943 </i>
    <i name="e_0_energy">   -761.31420943 </i>
   </energy>
  </scstep>
  <scstep>
   <time name="total">   12.14   12.24</time>
   <energy>
    <i name="e_fr_energy">   -761.31481596 </i>
    <i name="e_wo_entrp">   -761.31481596 </i>
    <i name="e_0_energy">   -761.31481596 </i>
   </energy>
  </scstep>
  <scstep>
   <time name="total">   12.21   12.32</time>
   <energy>
    <i name="e_fr_energy">   -761.31526514 </i>
    <i name="e_wo_entrp">   -761.31526514 </i>
    <i name="e_0_energy">   -761.31526514 </i>
   </energy>
  </scstep>
  <scstep>
   <time name="total">   12.12   12.22</time>
   <energy>
    <i name="e_fr_energy">   -761.31559133 </i>
    <i name="e_wo_entrp">   -761.31559133 </i>
    <i name="e_0_energy">   -761.31559133 </i>
   </energy>
  </scstep>
  <scstep>
   <time name="total">   12.17   12.27</time>
   <energy>
    <i name="e_fr_energy">   -761.31553768 </i>
    <i name="e_wo_entrp">   -761.31553768 </i>
    <i name="e_0_energy">   -761.31553768 </i>
   </energy>
  </scstep>
  <scstep>
   <time name="total">   12.19   12.29</time>
   <energy>
    <i name="e_fr_energy">   -761.31573229 </i>
    <i name="e_wo_entrp">   -761.31573229 </i>
    <i name="e_0_energy">   -761.31573229 </i>
   </energy>
  </scstep>
  <scstep>
   <time name="total">   12.31   12.41</time>
   <energy>
    <i name="e_fr_energy">   -761.31557469 </i>
    <i name="e_wo_entrp">   -761.31557469 </i>
    <i name="e_0_energy">   -761.31557469 </i>
   </energy>
  </scstep>
  <scstep>
   <time name="total">   12.46   12.57</time>
   <energy>
    <i name="e_fr_energy">   -761.31565022 </i>
    <i name="e_wo_entrp">   -761.31565022 </i>
    <i name="e_0_energy">   -761.31565022 </i>
   </energy>
  </scstep>
  <scstep>
   <time name="total">   12.51   12.61</time>
   <energy>
    <i name="e_fr_energy">   -761.31555574 </i>
    <i name="e_wo_entrp">   -761.31555574 </i>
    <i name="e_0_energy">   -761.31555574 </i>
   </energy>
  </scstep>
  <scstep>
   <time name="total">   12.52   12.63</time>
   <energy>
    <i name="e_fr_energy">   -761.31564827 </i>
    <i name="e_wo_entrp">   -761.31564827 </i>
    <i name="e_0_energy">   -761.31564827 </i>
   </energy>
  </scstep>
  <scstep>
   <time name="total">   12.65   12.76</time>
   <energy>
    <i name="e_fr_energy">   -761.31556089 </i>
    <i name="e_wo_entrp">   -761.31556089 </i>
    <i name="e_0_energy">   -761.31556089 </i>
   </energy>
  </scstep>
  <scstep>
   <time name="total">   12.70   12.80</time>
   <energy>
    <i name="e_fr_energy">   -761.31563017 </i>
    <i name="e_wo_entrp">   -761.31563017 </i>
    <i name="e_0_energy">   -761.31563017 </i>
   </energy>
  </scstep>
  <scstep>
   <time name="total">   12.80   12.91</time>
   <energy>
    <i name="e_fr_energy">   -761.31552367 </i>
    <i name="e_wo_entrp">   -761.31552367 </i>
    <i name="e_0_energy">   -761.31552367 </i>
   </energy>
  </scstep>
  <scstep>
   <time name="total">   12.76   12.87</time>
   <energy>
    <i name="e_fr_energy">   -761.31565859 </i>
    <i name="e_wo_entrp">   -761.31565859 </i>
    <i name="e_0_energy">   -761.31565859 </i>
   </energy>
  </scstep>
  <scstep>
   <time name="total">   12.80   12.91</time>
   <energy>
    <i name="e_fr_energy">   -761.31550089 </i>
    <i name="e_wo_entrp">   -761.31550089 </i>
    <i name="e_0_energy">   -761.31550089 </i>
   </energy>
  </scstep>
  <scstep>
   <time name="total">   12.88   12.99</time>
   <energy>
    <i name="e_fr_energy">   -761.31560437 </i>
    <i name="e_wo_entrp">   -761.31560437 </i>
    <i name="e_0_energy">   -761.31560437 </i>
   </energy>
  </scstep>
  <scstep>
   <time name="total">    7.27    7.33</time>
   <energy>
    <i name="e_fr_energy">   -739.32451463 </i>
    <i name="e_wo_entrp">   -739.32451463 </i>
    <i name="e_0_energy">   -739.32451463 </i>
   </energy>
  </scstep>
  <scstep>
   <time name="total">    8.81    8.89</time>
   <energy>
    <i name="e_fr_energy">   -760.65999733 </i>
    <i name="e_wo_entrp">   -760.65999733 </i>
    <i name="e_0_energy">   -760.65999733 </i>
   </energy>
  </scstep>
  <scstep>
   <time name="total">    9.98   10.06</time>
   <energy>
    <i name="e_fr_energy">   -761.76389605 </i>
    <i name="e_wo_entrp">   -761.76389605 </i>
    <i name="e_0_energy">   -761.76389605 </i>
   </energy>
  </scstep>
  <scstep>
   <time name="total">   10.07   10.15</time>
   <energy>
    <i name="e_fr_energy">   -762.19331916 </i>
    <i name="e_wo_entrp">   -762.19331916 </i>
    <i name="e_0_energy">   -762.19331916 </i>
   </energy>
  </scstep>
  <scstep>
   <time name="total">   10.50   10.59</time>
   <energy>
    <i name="e_fr_energy">   -762.52149396 </i>
    <i name="e_wo_entrp">   -762.52149396 </i>
    <i name="e_0_energy">   -762.52149396 </i>
   </energy>
  </scstep>
  <scstep>
   <time name="total">   12.04   12.14</time>
   <energy>
    <i name="e_fr_energy">   -762.64668757 </i>
    <i name="e_wo_entrp">   -762.64668757 </i>
    <i name="e_0_energy">   -762.64668757 </i>
   </energy>
  </scstep>
  <scstep>
   <time name="total">   11.86   11.96</time>
   <energy>
    <i name="e_fr_energy">   -762.71512693 </i>
    <i name="e_wo_entrp">   -762.71512693 </i>
    <i name="e_0_energy">   -762.71512693 </i>
   </energy>
  </scstep>
  <scstep>
   <time name="total">   12.00   12.10</time>
   <energy>
    <i name="e_fr_energy">   -762.77709674 </i>
    <i name="e_wo_entrp">   -762.77709674 </i>
    <i name="e_0_energy">   -762.77709674 </i>
   </energy>
  </scstep>
  <scstep>
   <time name="total">   12.51   12.61</time>
   <energy>
    <i name="e_fr_energy">   -762.79014574 </i>
    <i name="e_wo_entrp">   -762.79014574 </i>
    <i name="e_0_energy">   -762.79014574 </i>
   </energy>
  </scstep>
  <scstep>
   <time name="total">   12.38   12.48</time>
   <energy>
    <i name="e_fr_energy">   -762.79220378 </i>
    <i name="e_wo_entrp">   -762.79220378 </i>
    <i name="e_0_energy">   -762.79220378 </i>
   </energy>
  </scstep>
  <scstep>
   <time name="total">   12.42   12.53</time>
   <energy>
    <i name="e_fr_energy">   -762.78939815 </i>
    <i name="e_wo_entrp">   -762.78939815 </i>
    <i name="e_0_energy">   -762.78939815 </i>
   </energy>
  </scstep>
  <scstep>
   <time name="total">   12.77   12.88</time>
   <energy>
    <i name="e_fr_energy">   -762.78276397 </i>
    <i name="e_wo_entrp">   -762.78276397 </i>
    <i name="e_0_energy">   -762.78276397 </i>
   </energy>
  </scstep>
  <scstep>
   <time name="total">   12.43   12.53</time>
   <energy>
    <i name="e_fr_energy">   -762.78164703 </i>
    <i name="e_wo_entrp">   -762.78164703 </i>
    <i name="e_0_energy">   -762.78164703 </i>
   </energy>
  </scstep>
  <scstep>
   <time name="total">   12.53   12.63</time>
   <energy>
    <i name="e_fr_energy">   -762.78157473 </i>
    <i name="e_wo_entrp">   -762.78157473 </i>
    <i name="e_0_energy">   -762.78157473 </i>
   </energy>
  </scstep>
  <scstep>
   <time name="total">   12.66   12.77</time>
   <energy>
    <i name="e_fr_energy">   -762.78251222 </i>
    <i name="e_wo_entrp">   -762.78251222 </i>
    <i name="e_0_energy">   -762.78251222 </i>
   </energy>
  </scstep>
  <scstep>
   <time name="total">   12.99   13.10</time>
   <energy>
    <i name="e_fr_energy">   -762.78173179 </i>
    <i name="e_wo_entrp">   -762.78173179 </i>
    <i name="e_0_energy">   -762.78173179 </i>
   </energy>
  </scstep>
  <scstep>
   <time name="total">   12.81   12.91</time>
   <energy>
    <i name="e_fr_energy">   -762.78313880 </i>
    <i name="e_wo_entrp">   -762.78313880 </i>
    <i name="e_0_energy">   -762.78313880 </i>
   </energy>
  </scstep>
  <scstep>
   <time name="total">   12.80   12.91</time>
   <energy>
    <i name="e_fr_energy">   -762.78249351 </i>
    <i name="e_wo_entrp">   -762.78249351 </i>
    <i name="e_0_energy">   -762.78249351 </i>
   </energy>
  </scstep>
  <scstep>
   <time name="total">   12.82   12.93</time>
   <energy>
    <i name="e_fr_energy">   -762.78306073 </i>
    <i name="e_wo_entrp">   -762.78306073 </i>
    <i name="e_0_energy">   -762.78306073 </i>
   </energy>
  </scstep>
  <scstep>
   <time name="total">   12.95   13.06</time>
   <energy>
    <i name="e_fr_energy">   -762.78239896 </i>
    <i name="e_wo_entrp">   -762.78239896 </i>
    <i name="e_0_energy">   -762.78239896 </i>
   </energy>
  </scstep>
  <scstep>
   <time name="total">   12.89   13.00</time>
   <energy>
    <i name="e_fr_energy">   -762.78297610 </i>
    <i name="e_wo_entrp">   -762.78297610 </i>
    <i name="e_0_energy">   -762.78297610 </i>
   </energy>
  </scstep>
  <scstep>
   <time name="total">   12.97   13.07</time>
   <energy>
    <i name="e_fr_energy">   -762.78235631 </i>
    <i name="e_wo_entrp">   -762.78235631 </i>
    <i name="e_0_energy">   -762.78235631 </i>
   </energy>
  </scstep>
  <scstep>
   <time name="total">    7.29    7.35</time>
   <energy>
    <i name="e_fr_energy">   -740.45609560 </i>
    <i name="e_wo_entrp">   -740.45609560 </i>
    <i name="e_0_energy">   -740.45609560 </i>
   </energy>
  </scstep>
  <scstep>
   <time name="total">    9.33    9.41</time>
   <energy>
    <i name="e_fr_energy">   -761.03962545 </i>
    <i name="e_wo_entrp">   -761.03962545 </i>
    <i name="e_0_energy">   -761.03962545 </i>
   </energy>
  </scstep>
  <scstep>
   <time name="total">    9.90    9.98</time>
   <energy>
    <i name="e_fr_energy">   -761.41894774 </i>
    <i name="e_wo_entrp">   -761.41894774 </i>
    <i name="e_0_energy">   -761.41894774 </i>
   </energy>
  </scstep>
  <scstep>
   <time name="total">   10.13   10.21</time>
   <energy>
    <i name="e_fr_energy">   -761.52628507 </i>
    <i name="e_wo_entrp">   -761.52628507 </i>
    <i name="e_0_energy">   -761.52628507 </i>
   </energy>
  </scstep>
  <scstep>
   <time name="total">   10.91   11.00</time>
   <energy>
    <i name="e_fr_energy">   -761.51580751 </i>
    <i name="e_wo_entrp">   -761.51580751 </i>
    <i name="e_0_energy">   -761.51580751 </i>
   </energy>
  </scstep>
  <scstep>
   <time name="total">   11.68   11.78</time>
   <energy>
    <i name="e_fr_energy">   -761.59482498 </i>
    <i name="e_wo_entrp">   -761.59482498 </i>
    <i name="e_0_energy">   -761.59482498 </i>
   </energy>
  </scstep>
  <scstep>
   <time name="total">   12.13   12.24</time>
   <energy>
    <i name="e_fr_energy">   -761.68565047 </i>
    <i name="e_wo_entrp">   -761.68565047 </i>
    <i name="e_0_energy">   -761.68565047 </i>
   </energy>
  </scstep>
  <scstep>
   <time name="total">   12.41   12.51</time>
   <energy>
    <i name="e_fr_energy">   -761.76191701 </i>
    <i name="e_wo_entrp">   -761.76191701 </i>
    <i name="e_0_energy">   -761.76191701 </i>
   </energy>
  </scstep>
  <scstep>
   <time name="total">   12.51   12.61</time>
   <energy>
    <i name="e_fr_energy">   -761.77342113 </i>
    <i name="e_wo_entrp">   -761.77342113 </i>
    <i name="e_0_energy">   -761.77342113 </i>
   </energy>
  </scstep>
  <scstep>
   <time name="total">   12.39   12.50</time>
   <energy>
    <i name="e_fr_energy">   -761.78448415 </i>
    <i name="e_wo_entrp">   -761.78448415 </i>
    <i name="e_0_energy">   -761.78448415 </i>
   </energy>
  </scstep>
  <scstep>
   <time name="total">   12.34   12.44</time>
   <energy>
    <i name="e_fr_energy">   -761.78722548 </i>
    <i name="e_wo_entrp">   -761.78722548 </i>
    <i name="e_0_energy">   -761.78722548 </i>
   </energy>
  </scstep>
  <scstep>
   <time name="total">   12.31   12.41</time>
   <energy>
    <i name="e_fr_energy">   -761.78839159 </i>
    <i name="e_wo_entrp">   -761.78839159 </i>
    <i name="e_0_energy">   -761.78839159 </i>
   </energy>
  </scstep>
  <scstep>
   <time name="total">   12.16   12.26</time>
   <energy>
    <i name="e_fr_energy">   -761.78876866 </i>
    <i name="e_wo_entrp">   -761.78876866 </i>
    <i name="e_0_energy">   -761.78876866 </i>
   </energy>
  </scstep>
  <scstep>
   <time name="total">   12.23   12.33</time>
   <energy>
    <i name="e_fr_energy">   -761.78903873 </i>
    <i name="e_wo_entrp">   -761.78903873 </i>
    <i name="e_0_energy">   -761.78903873 </i>
   </energy>
  </scstep>
  <scstep>
   <time name="total">   12.18   12.28</time>
   <energy>
    <i name="e_fr_energy">   -761.78921369 </i>
    <i name="e_wo_entrp">   -761.78921369 </i>
    <i name="e_0_energy">   -761.78921369 </i>
   </energy>
  </scstep>
  <scstep>
   <time name="total">   12.19   12.29</time>
   <energy>
    <i name="e_fr_energy">   -761.78917503 </i>
    <i name="e_wo_entrp">   -761.78917503 </i>
    <i name="e_0_energy">   -761.78917503 </i>
   </energy>
  </scstep>
  <scstep>
   <time name="total">   12.30   12.40</time>
   <energy>
    <i name="e_fr_energy">   -761.78937684 </i>
    <i name="e_wo_entrp">   -761.78937684 </i>
    <i name="e_0_energy">   -761.78937684 </i>
   </energy>
  </scstep>
  <scstep>
   <time name="total">   12.26   12.36</time>
   <energy>
    <i name="e_fr_energy">   -761.78917201 </i>
    <i name="e_wo_entrp">   -761.78917201 </i>
    <i name="e_0_energy">   -761.78917201 </i>
   </energy>
  </scstep>
  <scstep>
   <time name="total">   12.34   12.44</time>
   <energy>
    <i name="e_fr_energy">   -761.78945572 </i>
    <i name="e_wo_entrp">   -761.78945572 </i>
    <i name="e_0_energy">   -761.78945572 </i>
   </energy>
  </scstep>
  <scstep>
   <time name="total">   12.38   12.49</time>
   <energy>
    <i name="e_fr_energy">   -761.78927829 </i>
    <i name="e_wo_entrp">   -761.78927829 </i>
    <i name="e_0_energy">   -761.78927829 </i>
   </energy>
  </scstep>
  <scstep>
   <time name="total">   12.48   12.58</time>
   <energy>
    <i name="e_fr_energy">   -761.78948306 </i>
    <i name="e_wo_entrp">   -761.78948306 </i>
    <i name="e_0_energy">   -761.78948306 </i>
   </energy>
  </scstep>
  <scstep>
   <time name="total">    7.27    7.33</time>
   <energy>
    <i name="e_fr_energy">   -739.85240738 </i>
    <i name="e_wo_entrp">   -739.85240738 </i>
    <i name="e_0_energy">   -739.85240738 </i>
   </energy>
  </scstep>
  <scstep>
   <time name="total">    9.34    9.42</time>
   <energy>
    <i name="e_fr_energy">   -760.61787887 </i>
    <i name="e_wo_entrp">   -760.61787887 </i>
    <i name="e_0_energy">   -760.61787887 </i>
   </energy>
  </scstep>
  <scstep>
   <time name="total">    9.93   10.02</time>
   <energy>
    <i name="e_fr_energy">   -760.96931128 </i>
    <i name="e_wo_entrp">   -760.96931128 </i>
    <i name="e_0_energy">   -760.96931128 </i>
   </energy>
  </scstep>
  <scstep>
   <time name="total">   10.11   10.19</time>
   <energy>
    <i name="e_fr_energy">   -761.05252676 </i>
    <i name="e_wo_entrp">   -761.05252676 </i>
    <i name="e_0_energy">   -761.05252676 </i>
   </energy>
  </scstep>
  <scstep>
   <time name="total">   10.41   10.49</time>
   <energy>
    <i name="e_fr_energy">   -761.04251548 </i>
    <i name="e_wo_entrp">   -761.04251548 </i>
    <i name="e_0_energy">   -761.04251548 </i>
   </energy>
  </scstep>
  <scstep>
   <time name="total">   11.80   11.90</time>
   <energy>
    <i name="e_fr_energy">   -761.12581404 </i>
    <i name="e_wo_entrp">   -761.12581404 </i>
    <i name="e_0_energy">   -761.12581404 </i>
   </energy>
  </scstep>
  <scstep>
   <time name="total">   12.11   12.21</time>
   <energy>
    <i name="e_fr_energy">   -761.21464733 </i>
    <i name="e_wo_entrp">   -761.21464733 </i>
    <i name="e_0_energy">   -761.21464733 </i>
   </energy>
  </scstep>
  <scstep>
   <time name="total">   12.32   12.42</time>
   <energy>
    <i name="e_fr_energy">   -761.29348579 </i>
    <i name="e_wo_entrp">   -761.29348579 </i>
    <i name="e_0_energy">   -761.29348579 </i>
   </energy>
  </scstep>
  <scstep>
   <time name="total">   12.64   12.75</time>
   <energy>
    <i name="e_fr_energy">   -761.30116601 </i>
    <i name="e_wo_entrp">   -761.30116601 </i>
    <i name="e_0_energy">   -761.30116601 </i>
   </energy>
  </scstep>
  <scstep>
   <time name="total">   12.36   12.46</time>
   <energy>
    <i name="e_fr_energy">   -761.31110852 </i>
    <i name="e_wo_entrp">   -761.31110852 </i>
    <i name="e_0_energy">   -761.31110852 </i>
   </energy>
  </scstep>
  <scstep>
   <time name="total">   12.42   12.53</time>
   <energy>
    <i name="e_fr_energy">   -761.31311066 </i>
    <i name="e_wo_entrp">   -761.31311066 </i>
    <i name="e_0_energy">   -761.31311066 </i>
   </energy>
  </scstep>
  <scstep>
   <time name="total">   12.28   12.39</time>
   <energy>
    <i name="e_fr_energy">   -761.31431950 </i>
    <i name="e_wo_entrp">   -761.31431950 </i>
    <i name="e_0_energy">   -761.31431950 </i>
   </energy>
  </scstep>
  <scstep>
   <time name="total">   12.14   12.24</time>
   <energy>
    <i name="e_fr_energy">   -761.31493012 </i>
    <i name="e_wo_entrp">   -761.31493012 </i>
    <i name="e_0_energy">   -761.31493012 </i>
   </energy>
  </scstep>
  <scstep>
   <time name="total">   12.14   12.24</time>
   <energy>
    <i name="e_fr_energy">   -761.31538310 </i>
    <i name="e_wo_entrp">   -761.31538310 </i>
    <i name="e_0_energy">   -761.31538310 </i>
   </energy>
  </scstep>
  <scstep>
   <time name="total">   12.24   12.34</time>
   <energy>
    <i name="e_fr_energy">   -761.31570092 </i>
    <i name="e_wo_entrp">   -761.31570092 </i>
    <i name="e_0_energy">   -761.31570092 </i>
   </energy>
  </scstep>
  <scstep>
   <time name="total">   12.18   12.29</time>
   <energy>
    <i name="e_fr_energy">   -761.31567846 </i>
    <i name="e_wo_entrp">   -761.31567846 </i>
    <i name="e_0_energy">   -761.31567846 </i>
   </energy>
  </scstep>
  <scstep>
   <time name="total">   12.29   12.39</time>
   <energy>
    <i name="e_fr_energy">   -761.31584749 </i>
    <i name="e_wo_entrp">   -761.31584749 </i>
    <i name="e_0_energy">   -761.31584749 </i>
   </energy>
  </scstep>
  <scstep>
   <time name="total">   12.33   12.43</time>
   <energy>
    <i name="e_fr_energy">   -761.31565043 </i>
    <i name="e_wo_entrp">   -761.31565043 </i>
    <i name="e_0_energy">   -761.31565043 </i>
   </energy>
  </scstep>
  <scstep>
   <time name="total">   12.40   12.50</time>
   <energy>
    <i name="e_fr_energy">   -761.31576518 </i>
    <i name="e_wo_entrp">   -761.31576518 </i>
    <i name="e_0_energy">   -761.31576518 </i>
   </energy>
  </scstep>
  <scstep>
   <time name="total">   12.60   12.71</time>
   <energy>
    <i name="e_fr_energy">   -761.31566430 </i>
    <i name="e_wo_entrp">   -761.31566430 </i>
    <i name="e_0_energy">   -761.31566430 </i>
   </energy>
  </scstep>
  <scstep>
   <time name="total">   12.54   12.64</time>
   <energy>
    <i name="e_fr_energy">   -761.31574486 </i>
    <i name="e_wo_entrp">   -761.31574486 </i>
    <i name="e_0_energy">   -761.31574486 </i>
   </energy>
  </scstep>
  <scstep>
   <time name="total">   12.56   12.67</time>
   <energy>
    <i name="e_fr_energy">   -761.31572449 </i>
    <i name="e_wo_entrp">   -761.31572449 </i>
    <i name="e_0_energy">   -761.31572449 </i>
   </energy>
  </scstep>
  <scstep>
   <time name="total">   12.68   12.79</time>
   <energy>
    <i name="e_fr_energy">   -761.31571813 </i>
    <i name="e_wo_entrp">   -761.31571813 </i>
    <i name="e_0_energy">   -761.31571813 </i>
   </energy>
  </scstep>
  <scstep>
   <time name="total">   12.69   12.80</time>
   <energy>
    <i name="e_fr_energy">   -761.31568258 </i>
    <i name="e_wo_entrp">   -761.31568258 </i>
    <i name="e_0_energy">   -761.31568258 </i>
   </energy>
  </scstep>
  <scstep>
   <time name="total">   12.85   12.96</time>
   <energy>
    <i name="e_fr_energy">   -761.31570540 </i>
    <i name="e_wo_entrp">   -761.31570540 </i>
    <i name="e_0_energy">   -761.31570540 </i>
   </energy>
  </scstep>
  <scstep>
   <time name="total">   12.82   12.93</time>
   <energy>
    <i name="e_fr_energy">   -761.31572889 </i>
    <i name="e_wo_entrp">   -761.31572889 </i>
    <i name="e_0_energy">   -761.31572889 </i>
   </energy>
  </scstep>
  <scstep>
   <time name="total">   12.86   12.96</time>
   <energy>
    <i name="e_fr_energy">   -761.31574565 </i>
    <i name="e_wo_entrp">   -761.31574565 </i>
    <i name="e_0_energy">   -761.31574565 </i>
   </energy>
  </scstep>
  <scstep>
   <time name="total">    7.28    7.34</time>
   <energy>
    <i name="e_fr_energy">   -739.32448633 </i>
    <i name="e_wo_entrp">   -739.32448633 </i>
    <i name="e_0_energy">   -739.32448633 </i>
   </energy>
  </scstep>
  <scstep>
   <time name="total">    8.84    8.92</time>
   <energy>
    <i name="e_fr_energy">   -760.66234581 </i>
    <i name="e_wo_entrp">   -760.66234581 </i>
    <i name="e_0_energy">   -760.66234581 </i>
   </energy>
  </scstep>
  <scstep>
   <time name="total">    9.98   10.07</time>
   <energy>
    <i name="e_fr_energy">   -761.76210823 </i>
    <i name="e_wo_entrp">   -761.76210823 </i>
    <i name="e_0_energy">   -761.76210823 </i>
   </energy>
  </scstep>
  <scstep>
   <time name="total">   10.09   10.18</time>
   <energy>
    <i name="e_fr_energy">   -762.19313887 </i>
    <i name="e_wo_entrp">   -762.19313887 </i>
    <i name="e_0_energy">   -762.19313887 </i>
   </energy>
  </scstep>
  <scstep>
   <time name="total">   10.53   10.62</time>
   <energy>
    <i name="e_fr_energy">   -762.52118340 </i>
    <i name="e_wo_entrp">   -762.52118340 </i>
    <i name="e_0_energy">   -762.52118340 </i>
   </energy>
  </scstep>
  <scstep>
   <time name="total">   11.84   11.93</time>
   <energy>
    <i name="e_fr_energy">   -762.64656255 </i>
    <i name="e_wo_entrp">   -762.64656255 </i>
    <i name="e_0_energy">   -762.64656255 </i>
   </energy>
  </scstep>
  <scstep>
   <time name="total">   11.86   11.96</time>
   <energy>
    <i name="e_fr_energy">   -762.71503873 </i>
    <i name="e_wo_entrp">   -762.71503873 </i>
    <i name="e_0_energy">   -762.71503873 </i>
   </energy>
  </scstep>
  <scstep>
   <time name="total">   12.00   12.10</time>
   <energy>
    <i name="e_fr_energy">   -762.77712675 </i>
    <i name="e_wo_entrp">   -762.77712675 </i>
    <i name="e_0_energy">   -762.77712675 </i>
   </energy>
  </scstep>
  <scstep>
   <time name="total">   12.51   12.62</time>
   <energy>
    <i name="e_fr_energy">   -762.79022568 </i>
    <i name="e_wo_entrp">   -762.79022568 </i>
    <i name="e_0_energy">   -762.79022568 </i>
   </energy>
  </scstep>
  <scstep>
   <time name="total">   12.38   12.48</time>
   <energy>
    <i name="e_fr_energy">   -762.79226368 </i>
    <i name="e_wo_entrp">   -762.79226368 </i>
    <i name="e_0_energy">   -762.79226368 </i>
   </energy>
  </scstep>
  <scstep>
   <time name="total">   12.36   12.46</time>
   <energy>
    <i name="e_fr_energy">   -762.78933836 </i>
    <i name="e_wo_entrp">   -762.78933836 </i>
    <i name="e_0_energy">   -762.78933836 </i>
   </energy>
  </scstep>
  <scstep>
   <time name="total">   12.85   12.96</time>
   <energy>
    <i name="e_fr_energy">   -762.78278041 </i>
    <i name="e_wo_entrp">   -762.78278041 </i>
    <i name="e_0_energy">   -762.78278041 </i>
   </energy>
  </scstep>
  <scstep>
   <time name="total">   12.44   12.55</time>
   <energy>
    <i name="e_fr_energy">   -762.78158692 </i>
    <i name="e_wo_entrp">   -762.78158692 </i>
    <i name="e_0_energy">   -762.78158692 </i>
   </energy>
  </scstep>
  <scstep>
   <time name="total">   12.71   12.81</time>
   <energy>
    <i name="e_fr_energy">   -762.78150959 </i>
    <i name="e_wo_entrp">   -762.78150959 </i>
    <i name="e_0_energy">   -762.78150959 </i>
   </energy>
  </scstep>
  <scstep>
   <time name="total">   12.65   12.76</time>
   <energy>
    <i name="e_fr_energy">   -762.78257291 </i>
    <i name="e_wo_entrp">   -762.78257291 </i>
    <i name="e_0_energy">   -762.78257291 </i>
   </energy>
  </scstep>
  <scstep>
   <time name="total">   12.95   13.05</time>
   <energy>
    <i name="e_fr_energy">   -762.78192771 </i>
    <i name="e_wo_entrp">   -762.78192771 </i>
    <i name="e_0_energy">   -762.78192771 </i>
   </energy>
  </scstep>
  <scstep>
   <time name="total">   12.81   12.92</time>
   <energy>
    <i name="e_fr_energy">   -762.78308478 </i>
    <i name="e_wo_entrp">   -762.78308478 </i>
    <i name="e_0_energy">   -762.78308478 </i>
   </energy>
  </scstep>
  <scstep>
   <time name="total">   12.83   12.94</time>
   <energy>
    <i name="e_fr_energy">   -762.78259110 </i>
    <i name="e_wo_entrp">   -762.78259110 </i>
    <i name="e_0_energy">   -762.78259110 </i>
   </energy>
  </scstep>
  <scstep>
   <time name="total">   12.84   12.94</time>
   <energy>
    <i name="e_fr_energy">   -762.78307216 </i>
    <i name="e_wo_entrp">   -762.78307216 </i>
    <i name="e_0_energy">   -762.78307216 </i>
   </energy>
  </scstep>
  <scstep>
   <time name="total">   12.88   12.99</time>
   <energy>
    <i name="e_fr_energy">   -762.78227807 </i>
    <i name="e_wo_entrp">   -762.78227807 </i>
    <i name="e_0_energy">   -762.78227807 </i>
   </energy>
  </scstep>
  <scstep>
   <time name="total">   12.92   13.03</time>
   <energy>
    <i name="e_fr_energy">   -762.78306291 </i>
    <i name="e_wo_entrp">   -762.78306291 </i>
    <i name="e_0_energy">   -762.78306291 </i>
   </energy>
  </scstep>
  <scstep>
   <time name="total">   12.99   13.10</time>
   <energy>
    <i name="e_fr_energy">   -762.78236403 </i>
    <i name="e_wo_entrp">   -762.78236403 </i>
    <i name="e_0_energy">   -762.78236403 </i>
   </energy>
  </scstep>
  <scstep>
   <time name="total">    7.29    7.35</time>
   <energy>
    <i name="e_fr_energy">   -740.45609725 </i>
    <i name="e_wo_entrp">   -740.45609725 </i>
    <i name="e_0_energy">   -740.45609725 </i>
   </energy>
  </scstep>
  <scstep>
   <time name="total">    9.29    9.37</time>
   <energy>
    <i name="e_fr_energy">   -761.04477943 </i>
    <i name="e_wo_entrp">   -761.04477943 </i>
    <i name="e_0_energy">   -761.04477943 </i>
   </energy>
  </scstep>
  <scstep>
   <time name="total">    9.93   10.01</time>
   <energy>
    <i name="e_fr_energy">   -761.41442846 </i>
    <i name="e_wo_entrp">   -761.41442846 </i>
    <i name="e_0_energy">   -761.41442846 </i>
   </energy>
  </scstep>
  <scstep>
   <time name="total">   10.20   10.29</time>
   <energy>
    <i name="e_fr_energy">   -761.52520383 </i>
    <i name="e_wo_entrp">   -761.52520383 </i>
    <i name="e_0_energy">   -761.52520383 </i>
   </energy>
  </scstep>
  <scstep>
   <time name="total">   10.89   10.98</time>
   <energy>
    <i name="e_fr_energy">   -761.51553810 </i>
    <i name="e_wo_entrp">   -761.51553810 </i>
    <i name="e_0_energy">   -761.51553810 </i>
   </energy>
  </scstep>
  <scstep>
   <time name="total">   11.73   11.83</time>
   <energy>
    <i name="e_fr_energy">   -761.59455112 </i>
    <i name="e_wo_entrp">   -761.59455112 </i>
    <i name="e_0_energy">   -761.59455112 </i>
   </energy>
  </scstep>
  <scstep>
   <time name="total">   12.13   12.23</time>
   <energy>
    <i name="e_fr_energy">   -761.68663130 </i>
    <i name="e_wo_entrp">   -761.68663130 </i>
    <i name="e_0_energy">   -761.68663130 </i>
   </energy>
  </scstep>
  <scstep>
   <time name="total">   12.34   12.45</time>
   <energy>
    <i name="e_fr_energy">   -761.76233711 </i>
    <i name="e_wo_entrp">   -761.76233711 </i>
    <i name="e_0_energy">   -761.76233711 </i>
   </energy>
  </scstep>
  <scstep>
   <time name="total">   12.51   12.62</time>
   <energy>
    <i name="e_fr_energy">   -761.77309992 </i>
    <i name="e_wo_entrp">   -761.77309992 </i>
    <i name="e_0_energy">   -761.77309992 </i>
   </energy>
  </scstep>
  <scstep>
   <time name="total">   12.38   12.49</time>
   <energy>
    <i name="e_fr_energy">   -761.78437499 </i>
    <i name="e_wo_entrp">   -761.78437499 </i>
    <i name="e_0_energy">   -761.78437499 </i>
   </energy>
  </scstep>
  <scstep>
   <time name="total">   12.37   12.47</time>
   <energy>
    <i name="e_fr_energy">   -761.78729333 </i>
    <i name="e_wo_entrp">   -761.78729333 </i>
    <i name="e_0_energy">   -761.78729333 </i>
   </energy>
  </scstep>
  <scstep>
   <time name="total">   12.25   12.35</time>
   <energy>
    <i name="e_fr_energy">   -761.78846552 </i>
    <i name="e_wo_entrp">   -761.78846552 </i>
    <i name="e_0_energy">   -761.78846552 </i>
   </energy>
  </scstep>
  <scstep>
   <time name="total">   12.19   12.29</time>
   <energy>
    <i name="e_fr_energy">   -761.78876199 </i>
    <i name="e_wo_entrp">   -761.78876199 </i>
    <i name="e_0_energy">   -761.78876199 </i>
   </energy>
  </scstep>
  <scstep>
   <time name="total">   12.27   12.37</time>
   <energy>
    <i name="e_fr_energy">   -761.78904898 </i>
    <i name="e_wo_entrp">   -761.78904898 </i>
    <i name="e_0_energy">   -761.78904898 </i>
   </energy>
  </scstep>
  <scstep>
   <time name="total">   12.17   12.27</time>
   <energy>
    <i name="e_fr_energy">   -761.78916669 </i>
    <i name="e_wo_entrp">   -761.78916669 </i>
    <i name="e_0_energy">   -761.78916669 </i>
   </energy>
  </scstep>
  <scstep>
   <time name="total">   12.21   12.31</time>
   <energy>
    <i name="e_fr_energy">   -761.78918942 </i>
    <i name="e_wo_entrp">   -761.78918942 </i>
    <i name="e_0_energy">   -761.78918942 </i>
   </energy>
  </scstep>
  <scstep>
   <time name="total">   12.27   12.37</time>
   <energy>
    <i name="e_fr_energy">   -761.78934373 </i>
    <i name="e_wo_entrp">   -761.78934373 </i>
    <i name="e_0_energy">   -761.78934373 </i>
   </energy>
  </scstep>
  <scstep>
   <time name="total">   12.27   12.37</time>
   <energy>
    <i name="e_fr_energy">   -761.78920115 </i>
    <i name="e_wo_entrp">   -761.78920115 </i>
    <i name="e_0_energy">   -761.78920115 </i>
   </energy>
  </scstep>
  <scstep>
   <time name="total">   12.42   12.53</time>
   <energy>
    <i name="e_fr_energy">   -761.78944060 </i>
    <i name="e_wo_entrp">   -761.78944060 </i>
    <i name="e_0_energy">   -761.78944060 </i>
   </energy>
  </scstep>
  <scstep>
   <time name="total">   12.45   12.55</time>
   <energy>
    <i name="e_fr_energy">   -761.78929454 </i>
    <i name="e_wo_entrp">   -761.78929454 </i>
    <i name="e_0_energy">   -761.78929454 </i>
   </energy>
  </scstep>
  <scstep>
   <time name="total">   12.48   12.58</time>
   <energy>
    <i name="e_fr_energy">   -761.78943180 </i>
    <i name="e_wo_entrp">   -761.78943180 </i>
    <i name="e_0_energy">   -761.78943180 </i>
   </energy>
  </scstep>
  <scstep>
   <time name="total">    7.36    7.43</time>
   <energy>
    <i name="e_fr_energy">   -739.85240546 </i>
    <i name="e_wo_entrp">   -739.85240546 </i>
    <i name="e_0_energy">   -739.85240546 </i>
   </energy>
  </scstep>
  <scstep>
   <time name="total">    9.34    9.42</time>
   <energy>
    <i name="e_fr_energy">   -760.61618153 </i>
    <i name="e_wo_entrp">   -760.61618153 </i>
    <i name="e_0_energy">   -760.61618153 </i>
   </energy>
  </scstep>
  <scstep>
   <time name="total">    9.94   10.02</time>
   <energy>
    <i name="e_fr_energy">   -760.97162252 </i>
    <i name="e_wo_entrp">   -760.97162252 </i>
    <i name="e_0_energy">   -760.97162252 </i>
   </energy>
  </scstep>
  <scstep>
   <time name="total">   10.16   10.25</time>
   <energy>
    <i name="e_fr_energy">   -761.05191211 </i>
    <i name="e_wo_entrp">   -761.05191211 </i>
    <i name="e_0_energy">   -761.05191211 </i>
   </energy>
  </scstep>
  <scstep>
   <time name="total">   10.42   10.51</time>
   <energy>
    <i name="e_fr_energy">   -761.04200563 </i>
    <i name="e_wo_entrp">   -761.04200563 </i>
    <i name="e_0_energy">   -761.04200563 </i>
   </energy>
  </scstep>
  <scstep>
   <time name="total">   11.73   11.82</time>
   <energy>
    <i name="e_fr_energy">   -761.12580009 </i>
    <i name="e_wo_entrp">   -761.12580009 </i>
    <i name="e_0_energy">   -761.12580009 </i>
   </energy>
  </scstep>
  <scstep>
   <time name="total">   12.21   12.32</time>
   <energy>
    <i name="e_fr_energy">   -761.21443986 </i>
    <i name="e_wo_entrp">   -761.21443986 </i>
    <i name="e_0_energy">   -761.21443986 </i>
   </energy>
  </scstep>
  <scstep>
   <time name="total">   12.32   12.43</time>
   <energy>
    <i name="e_fr_energy">   -761.29352692 </i>
    <i name="e_wo_entrp">   -761.29352692 </i>
    <i name="e_0_energy">   -761.29352692 </i>
   </energy>
  </scstep>
  <scstep>
   <time name="total">   12.69   12.79</time>
   <energy>
    <i name="e_fr_energy">   -761.30127593 </i>
    <i name="e_wo_entrp">   -761.30127593 </i>
    <i name="e_0_energy">   -761.30127593 </i>
   </energy>
  </scstep>
  <scstep>
   <time name="total">   12.35   12.45</time>
   <energy>
    <i name="e_fr_energy">   -761.31107062 </i>
    <i name="e_wo_entrp">   -761.31107062 </i>
    <i name="e_0_energy">   -761.31107062 </i>
   </energy>
  </scstep>
  <scstep>
   <time name="total">   12.35   12.45</time>
   <energy>
    <i name="e_fr_energy">   -761.31318674 </i>
    <i name="e_wo_entrp">   -761.31318674 </i>
    <i name="e_0_energy">   -761.31318674 </i>
   </energy>
  </scstep>
  <scstep>
   <time name="total">   12.30   12.41</time>
   <energy>
    <i name="e_fr_energy">   -761.31444619 </i>
    <i name="e_wo_entrp">   -761.31444619 </i>
    <i name="e_0_energy">   -761.31444619 </i>
   </energy>
  </scstep>
  <scstep>
   <time name="total">   12.15   12.25</time>
   <energy>
    <i name="e_fr_energy">   -761.31501216 </i>
    <i name="e_wo_entrp">   -761.31501216 </i>
    <i name="e_0_energy">   -761.31501216 </i>
   </energy>
  </scstep>
  <scstep>
   <time name="total">   12.12   12.22</time>
   <energy>
    <i name="e_fr_energy">   -761.31549241 </i>
    <i name="e_wo_entrp">   -761.31549241 </i>
    <i name="e_0_energy">   -761.31549241 </i>
   </energy>
  </scstep>
  <scstep>
   <time name="total">   12.11   12.21</time>
   <energy>
    <i name="e_fr_energy">   -761.31580629 </i>
    <i name="e_wo_entrp">   -761.31580629 </i>
    <i name="e_0_energy">   -761.31580629 </i>
   </energy>
  </scstep>
  <scstep>
   <time name="total">   12.11   12.21</time>
   <energy>
    <i name="e_fr_energy">   -761.31575451 </i>
    <i name="e_wo_entrp">   -761.31575451 </i>
    <i name="e_0_energy">   -761.31575451 </i>
   </energy>
  </scstep>
  <scstep>
   <time name="total">   12.25   12.35</time>
   <energy>
    <i name="e_fr_energy">   -761.31593106 </i>
    <i name="e_wo_entrp">   -761.31593106 </i>
    <i name="e_0_energy">   -761.31593106 </i>
   </energy>
  </scstep>
  <scstep>
   <time name="total">   12.25   12.35</time>
   <energy>
    <i name="e_fr_energy">   -761.31580115 </i>
    <i name="e_wo_entrp">   -761.31580115 </i>
    <i name="e_0_energy">   -761.31580115 </i>
   </energy>
  </scstep>
  <scstep>
   <time name="total">   12.35   12.45</time>
   <energy>
    <i name="e_fr_energy">   -761.31589265 </i>
    <i name="e_wo_entrp">   -761.31589265 </i>
    <i name="e_0_energy">   -761.31589265 </i>
   </energy>
  </scstep>
  <scstep>
   <time name="total">   12.42   12.53</time>
   <energy>
    <i name="e_fr_energy">   -761.31579888 </i>
    <i name="e_wo_entrp">   -761.31579888 </i>
    <i name="e_0_energy">   -761.31579888 </i>
   </energy>
  </scstep>
  <scstep>
   <time name="total">   12.48   12.59</time>
   <energy>
    <i name="e_fr_energy">   -761.31587015 </i>
    <i name="e_wo_entrp">   -761.31587015 </i>
    <i name="e_0_energy">   -761.31587015 </i>
   </energy>
  </scstep>
  <scstep>
   <time name="total">   12.61   12.72</time>
   <energy>
    <i name="e_fr_energy">   -761.31580836 </i>
    <i name="e_wo_entrp">   -761.31580836 </i>
    <i name="e_0_energy">   -761.31580836 </i>
   </energy>
  </scstep>
  <scstep>
   <time name="total">   12.60   12.71</time>
   <energy>
    <i name="e_fr_energy">   -761.31582930 </i>
    <i name="e_wo_entrp">   -761.31582930 </i>
    <i name="e_0_energy">   -761.31582930 </i>
   </energy>
  </scstep>
  <scstep>
   <time name="total">   12.72   12.83</time>
   <energy>
    <i name="e_fr_energy">   -761.31580307 </i>
    <i name="e_wo_entrp">   -761.31580307 </i>
    <i name="e_0_energy">   -761.31580307 </i>
   </energy>
  </scstep>
  <scstep>
   <time name="total">   12.71   12.82</time>
   <energy>
    <i name="e_fr_energy">   -761.31580286 </i>
    <i name="e_wo_entrp">   -761.31580286 </i>
    <i name="e_0_energy">   -761.31580286 </i>
   </energy>
  </scstep>
  <scstep>
   <time name="total">   12.82   12.92</time>
   <energy>
    <i name="e_fr_energy">   -761.31575148 </i>
    <i name="e_wo_entrp">   -761.31575148 </i>
    <i name="e_0_energy">   -761.31575148 </i>
   </energy>
  </scstep>
  <scstep>
   <time name="total">   12.79   12.90</time>
   <energy>
    <i name="e_fr_energy">   -761.31582706 </i>
    <i name="e_wo_entrp">   -761.31582706 </i>
    <i name="e_0_energy">   -761.31582706 </i>
   </energy>
  </scstep>
  <scstep>
   <time name="total">    7.26    7.32</time>
   <energy>
    <i name="e_fr_energy">   -739.32448787 </i>
    <i name="e_wo_entrp">   -739.32448787 </i>
    <i name="e_0_energy">   -739.32448787 </i>
   </energy>
  </scstep>
  <scstep>
   <time name="total">    8.78    8.85</time>
   <energy>
    <i name="e_fr_energy">   -760.66136293 </i>
    <i name="e_wo_entrp">   -760.66136293 </i>
    <i name="e_0_energy">   -760.66136293 </i>
   </energy>
  </scstep>
  <scstep>
   <time name="total">    9.98   10.07</time>
   <energy>
    <i name="e_fr_energy">   -761.76225461 </i>
    <i name="e_wo_entrp">   -761.76225461 </i>
    <i name="e_0_energy">   -761.76225461 </i>
   </energy>
  </scstep>
  <scstep>
   <time name="total">   10.14   10.23</time>
   <energy>
    <i name="e_fr_energy">   -762.19306575 </i>
    <i name="e_wo_entrp">   -762.19306575 </i>
    <i name="e_0_energy">   -762.19306575 </i>
   </energy>
  </scstep>
  <scstep>
   <time name="total">   10.49   10.58</time>
   <energy>
    <i name="e_fr_energy">   -762.52164956 </i>
    <i name="e_wo_entrp">   -762.52164956 </i>
    <i name="e_0_energy">   -762.52164956 </i>
   </energy>
  </scstep>
  <scstep>
   <time name="total">   11.89   11.99</time>
   <energy>
    <i name="e_fr_energy">   -762.64693425 </i>
    <i name="e_wo_entrp">   -762.64693425 </i>
    <i name="e_0_energy">   -762.64693425 </i>
   </energy>
  </scstep>
  <scstep>
   <time name="total">   11.88   11.98</time>
   <energy>
    <i name="e_fr_energy">   -762.71522287 </i>
    <i name="e_wo_entrp">   -762.71522287 </i>
    <i name="e_0_energy">   -762.71522287 </i>
   </energy>
  </scstep>
  <scstep>
   <time name="total">   12.00   12.10</time>
   <energy>
    <i name="e_fr_energy">   -762.77718607 </i>
    <i name="e_wo_entrp">   -762.77718607 </i>
    <i name="e_0_energy">   -762.77718607 </i>
   </energy>
  </scstep>
  <scstep>
   <time name="total">   12.54   12.64</time>
   <energy>
    <i name="e_fr_energy">   -762.79021943 </i>
    <i name="e_wo_entrp">   -762.79021943 </i>
    <i name="e_0_energy">   -762.79021943 </i>
   </energy>
  </scstep>
  <scstep>
   <time name="total">   12.36   12.46</time>
   <energy>
    <i name="e_fr_energy">   -762.79220655 </i>
    <i name="e_wo_entrp">   -762.79220655 </i>
    <i name="e_0_energy">   -762.79220655 </i>
   </energy>
  </scstep>
  <scstep>
   <time name="total">   12.32   12.43</time>
   <energy>
    <i name="e_fr_energy">   -762.78937626 </i>
    <i name="e_wo_entrp">   -762.78937626 </i>
    <i name="e_0_energy">   -762.78937626 </i>
   </energy>
  </scstep>
  <scstep>
   <time name="total">   12.78   12.89</time>
   <energy>
    <i name="e_fr_energy">   -762.78277592 </i>
    <i name="e_wo_entrp">   -762.78277592 </i>
    <i name="e_0_energy">   -762.78277592 </i>
   </energy>
  </scstep>
  <scstep>
   <time name="total">   12.46   12.56</time>
   <energy>
    <i name="e_fr_energy">   -762.78161312 </i>
    <i name="e_wo_entrp">   -762.78161312 </i>
    <i name="e_0_energy">   -762.78161312 </i>
   </energy>
  </scstep>
  <scstep>
   <time name="total">   12.65   12.76</time>
   <energy>
    <i name="e_fr_energy">   -762.78152201 </i>
    <i name="e_wo_entrp">   -762.78152201 </i>
    <i name="e_0_energy">   -762.78152201 </i>
   </energy>
  </scstep>
  <scstep>
   <time name="total">   12.67   12.78</time>
   <energy>
    <i name="e_fr_energy">   -762.78257211 </i>
    <i name="e_wo_entrp">   -762.78257211 </i>
    <i name="e_0_energy">   -762.78257211 </i>
   </energy>
  </scstep>
  <scstep>
   <time name="total">   12.93   13.04</time>
   <energy>
    <i name="e_fr_energy">   -762.78190327 </i>
    <i name="e_wo_entrp">   -762.78190327 </i>
    <i name="e_0_energy">   -762.78190327 </i>
   </energy>
  </scstep>
  <scstep>
   <time name="total">   12.76   12.86</time>
   <energy>
    <i name="e_fr_energy">   -762.78300842 </i>
    <i name="e_wo_entrp">   -762.78300842 </i>
    <i name="e_0_energy">   -762.78300842 </i>
   </energy>
  </scstep>
  <scstep>
   <time name="total">   12.92   13.02</time>
   <energy>
    <i name="e_fr_energy">   -762.78256376 </i>
    <i name="e_wo_entrp">   -762.78256376 </i>
    <i name="e_0_energy">   -762.78256376 </i>
   </energy>
  </scstep>
  <scstep>
   <time name="total">   12.82   12.92</time>
   <energy>
    <i name="e_fr_energy">   -762.78286059 </i>
    <i name="e_wo_entrp">   -762.78286059 </i>
    <i name="e_0_energy">   -762.78286059 </i>
   </energy>
  </scstep>
  <scstep>
   <time name="total">   12.91   13.01</time>
   <energy>
    <i name="e_fr_energy">   -762.78254487 </i>
    <i name="e_wo_entrp">   -762.78254487 </i>
    <i name="e_0_energy">   -762.78254487 </i>
   </energy>
  </scstep>
  <scstep>
   <time name="total">   13.08   13.20</time>
   <energy>
    <i name="e_fr_energy">   -762.78283025 </i>
    <i name="e_wo_entrp">   -762.78283025 </i>
    <i name="e_0_energy">   -762.78283025 </i>
   </energy>
  </scstep>
  <scstep>
   <time name="total">   13.00   13.11</time>
   <energy>
    <i name="e_fr_energy">   -762.78252810 </i>
    <i name="e_wo_entrp">   -762.78252810 </i>
    <i name="e_0_energy">   -762.78252810 </i>
   </energy>
  </scstep>
  <scstep>
   <time name="total">    7.28    7.34</time>
   <energy>
    <i name="e_fr_energy">   -740.45218989 </i>
    <i name="e_wo_entrp">   -740.45218989 </i>
    <i name="e_0_energy">   -740.45218989 </i>
   </energy>
  </scstep>
  <scstep>
   <time name="total">    9.28    9.36</time>
   <energy>
    <i name="e_fr_energy">   -761.03644625 </i>
    <i name="e_wo_entrp">   -761.03644625 </i>
    <i name="e_0_energy">   -761.03644625 </i>
   </energy>
  </scstep>
  <scstep>
   <time name="total">    9.91   10.00</time>
   <energy>
    <i name="e_fr_energy">   -761.42389028 </i>
    <i name="e_wo_entrp">   -761.42389028 </i>
    <i name="e_0_energy">   -761.42389028 </i>
   </energy>
  </scstep>
  <scstep>
   <time name="total">   10.13   10.22</time>
   <energy>
    <i name="e_fr_energy">   -761.52943010 </i>
    <i name="e_wo_entrp">   -761.52943010 </i>
    <i name="e_0_energy">   -761.52943010 </i>
   </energy>
  </scstep>
  <scstep>
   <time name="total">   10.88   10.97</time>
   <energy>
    <i name="e_fr_energy">   -761.51914418 </i>
    <i name="e_wo_entrp">   -761.51914418 </i>
    <i name="e_0_energy">   -761.51914418 </i>
   </energy>
  </scstep>
  <scstep>
   <time name="total">   11.74   11.84</time>
   <energy>
    <i name="e_fr_energy">   -761.59739539 </i>
    <i name="e_wo_entrp">   -761.59739539 </i>
    <i name="e_0_energy">   -761.59739539 </i>
   </energy>
  </scstep>
  <scstep>
   <time name="total">   12.10   12.21</time>
   <energy>
    <i name="e_fr_energy">   -761.68731977 </i>
    <i name="e_wo_entrp">   -761.68731977 </i>
    <i name="e_0_energy">   -761.68731977 </i>
   </energy>
  </scstep>
  <scstep>
   <time name="total">   12.36   12.46</time>
   <energy>
    <i name="e_fr_energy">   -761.76081637 </i>
    <i name="e_wo_entrp">   -761.76081637 </i>
    <i name="e_0_energy">   -761.76081637 </i>
   </energy>
  </scstep>
  <scstep>
   <time name="total">   12.47   12.57</time>
   <energy>
    <i name="e_fr_energy">   -761.77160264 </i>
    <i name="e_wo_entrp">   -761.77160264 </i>
    <i name="e_0_energy">   -761.77160264 </i>
   </energy>
  </scstep>
  <scstep>
   <time name="total">   12.47   12.58</time>
   <energy>
    <i name="e_fr_energy">   -761.78360879 </i>
    <i name="e_wo_entrp">   -761.78360879 </i>
    <i name="e_0_energy">   -761.78360879 </i>
   </energy>
  </scstep>
  <scstep>
   <time name="total">   12.35   12.46</time>
   <energy>
    <i name="e_fr_energy">   -761.78567766 </i>
    <i name="e_wo_entrp">   -761.78567766 </i>
    <i name="e_0_energy">   -761.78567766 </i>
   </energy>
  </scstep>
  <scstep>
   <time name="total">   12.26   12.36</time>
   <energy>
    <i name="e_fr_energy">   -761.78696229 </i>
    <i name="e_wo_entrp">   -761.78696229 </i>
    <i name="e_0_energy">   -761.78696229 </i>
   </energy>
  </scstep>
  <scstep>
   <time name="total">   12.24   12.34</time>
   <energy>
    <i name="e_fr_energy">   -761.78737668 </i>
    <i name="e_wo_entrp">   -761.78737668 </i>
    <i name="e_0_energy">   -761.78737668 </i>
   </energy>
  </scstep>
  <scstep>
   <time name="total">   12.26   12.36</time>
   <energy>
    <i name="e_fr_energy">   -761.78764672 </i>
    <i name="e_wo_entrp">   -761.78764672 </i>
    <i name="e_0_energy">   -761.78764672 </i>
   </energy>
  </scstep>
  <scstep>
   <time name="total">   12.25   12.35</time>
   <energy>
    <i name="e_fr_energy">   -761.78779983 </i>
    <i name="e_wo_entrp">   -761.78779983 </i>
    <i name="e_0_energy">   -761.78779983 </i>
   </energy>
  </scstep>
  <scstep>
   <time name="total">   12.22   12.32</time>
   <energy>
    <i name="e_fr_energy">   -761.78776117 </i>
    <i name="e_wo_entrp">   -761.78776117 </i>
    <i name="e_0_energy">   -761.78776117 </i>
   </energy>
  </scstep>
  <scstep>
   <time name="total">   12.27   12.38</time>
   <energy>
    <i name="e_fr_energy">   -761.78789772 </i>
    <i name="e_wo_entrp">   -761.78789772 </i>
    <i name="e_0_energy">   -761.78789772 </i>
   </energy>
  </scstep>
  <scstep>
   <time name="total">   12.35   12.46</time>
   <energy>
    <i name="e_fr_energy">   -761.78775614 </i>
    <i name="e_wo_entrp">   -761.78775614 </i>
    <i name="e_0_energy">   -761.78775614 </i>
   </energy>
  </scstep>
  <scstep>
   <time name="total">   12.32   12.42</time>
   <energy>
    <i name="e_fr_energy">   -761.78799670 </i>
    <i name="e_wo_entrp">   -761.78799670 </i>
    <i name="e_0_energy">   -761.78799670 </i>
   </energy>
  </scstep>
  <scstep>
   <time name="total">   12.49   12.59</time>
   <energy>
    <i name="e_fr_energy">   -761.78783444 </i>
    <i name="e_wo_entrp">   -761.78783444 </i>
    <i name="e_0_energy">   -761.78783444 </i>
   </energy>
  </scstep>
  <scstep>
   <time name="total">   12.52   12.63</time>
   <energy>
    <i name="e_fr_energy">   -761.78807158 </i>
    <i name="e_wo_entrp">   -761.78807158 </i>
    <i name="e_0_energy">   -761.78807158 </i>
   </energy>
  </scstep>
  <scstep>
   <time name="total">    7.28    7.34</time>
   <energy>
    <i name="e_fr_energy">   -739.88833377 </i>
    <i name="e_wo_entrp">   -739.88833377 </i>
    <i name="e_0_energy">   -739.88833377 </i>
   </energy>
  </scstep>
  <scstep>
   <time name="total">    9.33    9.41</time>
   <energy>
    <i name="e_fr_energy">   -760.57944571 </i>
    <i name="e_wo_entrp">   -760.57944571 </i>
    <i name="e_0_energy">   -760.57944571 </i>
   </energy>
  </scstep>
  <scstep>
   <time name="total">   10.04   10.12</time>
   <energy>
    <i name="e_fr_energy">   -760.93585847 </i>
    <i name="e_wo_entrp">   -760.93585847 </i>
    <i name="e_0_energy">   -760.93585847 </i>
   </energy>
  </scstep>
  <scstep>
   <time name="total">   10.20   10.29</time>
   <energy>
    <i name="e_fr_energy">   -761.01570285 </i>
    <i name="e_wo_entrp">   -761.01570285 </i>
    <i name="e_0_energy">   -761.01570285 </i>
   </energy>
  </scstep>
  <scstep>
   <time name="total">   10.41   10.50</time>
   <energy>
    <i name="e_fr_energy">   -761.00375579 </i>
    <i name="e_wo_entrp">   -761.00375579 </i>
    <i name="e_0_energy">   -761.00375579 </i>
   </energy>
  </scstep>
  <scstep>
   <time name="total">   11.78   11.87</time>
   <energy>
    <i name="e_fr_energy">   -761.08641459 </i>
    <i name="e_wo_entrp">   -761.08641459 </i>
    <i name="e_0_energy">   -761.08641459 </i>
   </energy>
  </scstep>
  <scstep>
   <time name="total">   12.12   12.23</time>
   <energy>
    <i name="e_fr_energy">   -761.17561310 </i>
    <i name="e_wo_entrp">   -761.17561310 </i>
    <i name="e_0_energy">   -761.17561310 </i>
   </energy>
  </scstep>
  <scstep>
   <time name="total">   12.36   12.47</time>
   <energy>
    <i name="e_fr_energy">   -761.25281297 </i>
    <i name="e_wo_entrp">   -761.25281297 </i>
    <i name="e_0_energy">   -761.25281297 </i>
   </energy>
  </scstep>
  <scstep>
   <time name="total">   12.56   12.66</time>
   <energy>
    <i name="e_fr_energy">   -761.26023941 </i>
    <i name="e_wo_entrp">   -761.26023941 </i>
    <i name="e_0_energy">   -761.26023941 </i>
   </energy>
  </scstep>
  <scstep>
   <time name="total">   12.32   12.43</time>
   <energy>
    <i name="e_fr_energy">   -761.27115712 </i>
    <i name="e_wo_entrp">   -761.27115712 </i>
    <i name="e_0_energy">   -761.27115712 </i>
   </energy>
  </scstep>
  <scstep>
   <time name="total">   12.34   12.45</time>
   <energy>
    <i name="e_fr_energy">   -761.27299281 </i>
    <i name="e_wo_entrp">   -761.27299281 </i>
    <i name="e_0_energy">   -761.27299281 </i>
   </energy>
  </scstep>
  <scstep>
   <time name="total">   12.20   12.30</time>
   <energy>
    <i name="e_fr_energy">   -761.27405481 </i>
    <i name="e_wo_entrp">   -761.27405481 </i>
    <i name="e_0_energy">   -761.27405481 </i>
   </energy>
  </scstep>
  <scstep>
   <time name="total">   12.13   12.23</time>
   <energy>
    <i name="e_fr_energy">   -761.27463260 </i>
    <i name="e_wo_entrp">   -761.27463260 </i>
    <i name="e_0_energy">   -761.27463260 </i>
   </energy>
  </scstep>
  <scstep>
   <time name="total">   12.19   12.29</time>
   <energy>
    <i name="e_fr_energy">   -761.27497049 </i>
    <i name="e_wo_entrp">   -761.27497049 </i>
    <i name="e_0_energy">   -761.27497049 </i>
   </energy>
  </scstep>
  <scstep>
   <time name="total">   12.12   12.22</time>
   <energy>
    <i name="e_fr_energy">   -761.27528166 </i>
    <i name="e_wo_entrp">   -761.27528166 </i>
    <i name="e_0_energy">   -761.27528166 </i>
   </energy>
  </scstep>
  <scstep>
   <time name="total">   12.23   12.34</time>
   <energy>
    <i name="e_fr_energy">   -761.27524130 </i>
    <i name="e_wo_entrp">   -761.27524130 </i>
    <i name="e_0_energy">   -761.27524130 </i>
   </energy>
  </scstep>
  <scstep>
   <time name="total">   12.25   12.35</time>
   <energy>
    <i name="e_fr_energy">   -761.27538266 </i>
    <i name="e_wo_entrp">   -761.27538266 </i>
    <i name="e_0_energy">   -761.27538266 </i>
   </energy>
  </scstep>
  <scstep>
   <time name="total">   12.33   12.44</time>
   <energy>
    <i name="e_fr_energy">   -761.27521874 </i>
    <i name="e_wo_entrp">   -761.27521874 </i>
    <i name="e_0_energy">   -761.27521874 </i>
   </energy>
  </scstep>
  <scstep>
   <time name="total">   12.34   12.44</time>
   <energy>
    <i name="e_fr_energy">   -761.27532537 </i>
    <i name="e_wo_entrp">   -761.27532537 </i>
    <i name="e_0_energy">   -761.27532537 </i>
   </energy>
  </scstep>
  <scstep>
   <time name="total">   12.45   12.55</time>
   <energy>
    <i name="e_fr_energy">   -761.27525555 </i>
    <i name="e_wo_entrp">   -761.27525555 </i>
    <i name="e_0_energy">   -761.27525555 </i>
   </energy>
  </scstep>
  <scstep>
   <time name="total">   12.56   12.66</time>
   <energy>
    <i name="e_fr_energy">   -761.27539466 </i>
    <i name="e_wo_entrp">   -761.27539466 </i>
    <i name="e_0_energy">   -761.27539466 </i>
   </energy>
  </scstep>
  <scstep>
   <time name="total">   12.60   12.70</time>
   <energy>
    <i name="e_fr_energy">   -761.27523164 </i>
    <i name="e_wo_entrp">   -761.27523164 </i>
    <i name="e_0_energy">   -761.27523164 </i>
   </energy>
  </scstep>
  <scstep>
   <time name="total">   12.68   12.78</time>
   <energy>
    <i name="e_fr_energy">   -761.27544660 </i>
    <i name="e_wo_entrp">   -761.27544660 </i>
    <i name="e_0_energy">   -761.27544660 </i>
   </energy>
  </scstep>
  <scstep>
   <time name="total">   12.71   12.81</time>
   <energy>
    <i name="e_fr_energy">   -761.27533394 </i>
    <i name="e_wo_entrp">   -761.27533394 </i>
    <i name="e_0_energy">   -761.27533394 </i>
   </energy>
  </scstep>
  <scstep>
   <time name="total">   12.74   12.84</time>
   <energy>
    <i name="e_fr_energy">   -761.27541948 </i>
    <i name="e_wo_entrp">   -761.27541948 </i>
    <i name="e_0_energy">   -761.27541948 </i>
   </energy>
  </scstep>
  <scstep>
   <time name="total">   12.77   12.87</time>
   <energy>
    <i name="e_fr_energy">   -761.27535176 </i>
    <i name="e_wo_entrp">   -761.27535176 </i>
    <i name="e_0_energy">   -761.27535176 </i>
   </energy>
  </scstep>
  <scstep>
   <time name="total">   12.79   12.90</time>
   <energy>
    <i name="e_fr_energy">   -761.27539582 </i>
    <i name="e_wo_entrp">   -761.27539582 </i>
    <i name="e_0_energy">   -761.27539582 </i>
   </energy>
  </scstep>
  <scstep>
   <time name="total">    7.29    7.35</time>
   <energy>
    <i name="e_fr_energy">   -739.38588828 </i>
    <i name="e_wo_entrp">   -739.38588828 </i>
    <i name="e_0_energy">   -739.38588828 </i>
   </energy>
  </scstep>
  <scstep>
   <time name="total">    8.78    8.85</time>
   <energy>
    <i name="e_fr_energy">   -760.65158573 </i>
    <i name="e_wo_entrp">   -760.65158573 </i>
    <i name="e_0_energy">   -760.65158573 </i>
   </energy>
  </scstep>
  <scstep>
   <time name="total">    9.99   10.07</time>
   <energy>
    <i name="e_fr_energy">   -761.76771840 </i>
    <i name="e_wo_entrp">   -761.76771840 </i>
    <i name="e_0_energy">   -761.76771840 </i>
   </energy>
  </scstep>
  <scstep>
   <time name="total">   10.09   10.22</time>
   <energy>
    <i name="e_fr_energy">   -762.19649084 </i>
    <i name="e_wo_entrp">   -762.19649084 </i>
    <i name="e_0_energy">   -762.19649084 </i>
   </energy>
  </scstep>
  <scstep>
   <time name="total">   10.51   10.59</time>
   <energy>
    <i name="e_fr_energy">   -762.52658849 </i>
    <i name="e_wo_entrp">   -762.52658849 </i>
    <i name="e_0_energy">   -762.52658849 </i>
   </energy>
  </scstep>
  <scstep>
   <time name="total">   11.82   11.92</time>
   <energy>
    <i name="e_fr_energy">   -762.65305180 </i>
    <i name="e_wo_entrp">   -762.65305180 </i>
    <i name="e_0_energy">   -762.65305180 </i>
   </energy>
  </scstep>
  <scstep>
   <time name="total">   11.84   11.94</time>
   <energy>
    <i name="e_fr_energy">   -762.71956290 </i>
    <i name="e_wo_entrp">   -762.71956290 </i>
    <i name="e_0_energy">   -762.71956290 </i>
   </energy>
  </scstep>
  <scstep>
   <time name="total">   11.98   12.08</time>
   <energy>
    <i name="e_fr_energy">   -762.77834547 </i>
    <i name="e_wo_entrp">   -762.77834547 </i>
    <i name="e_0_energy">   -762.77834547 </i>
   </energy>
  </scstep>
  <scstep>
   <time name="total">   12.50   12.60</time>
   <energy>
    <i name="e_fr_energy">   -762.79039293 </i>
    <i name="e_wo_entrp">   -762.79039293 </i>
    <i name="e_0_energy">   -762.79039293 </i>
   </energy>
  </scstep>
  <scstep>
   <time name="total">   12.38   12.48</time>
   <energy>
    <i name="e_fr_energy">   -762.79201215 </i>
    <i name="e_wo_entrp">   -762.79201215 </i>
    <i name="e_0_energy">   -762.79201215 </i>
   </energy>
  </scstep>
  <scstep>
   <time name="total">   12.34   12.44</time>
   <energy>
    <i name="e_fr_energy">   -762.78898193 </i>
    <i name="e_wo_entrp">   -762.78898193 </i>
    <i name="e_0_energy">   -762.78898193 </i>
   </energy>
  </scstep>
  <scstep>
   <time name="total">   12.74   12.85</time>
   <energy>
    <i name="e_fr_energy">   -762.78255686 </i>
    <i name="e_wo_entrp">   -762.78255686 </i>
    <i name="e_0_energy">   -762.78255686 </i>
   </energy>
  </scstep>
  <scstep>
   <time name="total">   12.45   12.56</time>
   <energy>
    <i name="e_fr_energy">   -762.78149013 </i>
    <i name="e_wo_entrp">   -762.78149013 </i>
    <i name="e_0_energy">   -762.78149013 </i>
   </energy>
  </scstep>
  <scstep>
   <time name="total">   12.53   12.63</time>
   <energy>
    <i name="e_fr_energy">   -762.78111044 </i>
    <i name="e_wo_entrp">   -762.78111044 </i>
    <i name="e_0_energy">   -762.78111044 </i>
   </energy>
  </scstep>
  <scstep>
   <time name="total">   12.70   12.81</time>
   <energy>
    <i name="e_fr_energy">   -762.78214801 </i>
    <i name="e_wo_entrp">   -762.78214801 </i>
    <i name="e_0_energy">   -762.78214801 </i>
   </energy>
  </scstep>
  <scstep>
   <time name="total">   12.96   13.07</time>
   <energy>
    <i name="e_fr_energy">   -762.78148199 </i>
    <i name="e_wo_entrp">   -762.78148199 </i>
    <i name="e_0_energy">   -762.78148199 </i>
   </energy>
  </scstep>
  <scstep>
   <time name="total">   12.80   12.91</time>
   <energy>
    <i name="e_fr_energy">   -762.78279902 </i>
    <i name="e_wo_entrp">   -762.78279902 </i>
    <i name="e_0_energy">   -762.78279902 </i>
   </energy>
  </scstep>
  <scstep>
   <time name="total">   12.83   12.94</time>
   <energy>
    <i name="e_fr_energy">   -762.78212614 </i>
    <i name="e_wo_entrp">   -762.78212614 </i>
    <i name="e_0_energy">   -762.78212614 </i>
   </energy>
  </scstep>
  <scstep>
   <time name="total">   12.82   12.93</time>
   <energy>
    <i name="e_fr_energy">   -762.78284567 </i>
    <i name="e_wo_entrp">   -762.78284567 </i>
    <i name="e_0_energy">   -762.78284567 </i>
   </energy>
  </scstep>
  <scstep>
   <time name="total">   13.00   13.10</time>
   <energy>
    <i name="e_fr_energy">   -762.78206263 </i>
    <i name="e_wo_entrp">   -762.78206263 </i>
    <i name="e_0_energy">   -762.78206263 </i>
   </energy>
  </scstep>
  <scstep>
   <time name="total">   12.92   13.03</time>
   <energy>
    <i name="e_fr_energy">   -762.78262672 </i>
    <i name="e_wo_entrp">   -762.78262672 </i>
    <i name="e_0_energy">   -762.78262672 </i>
   </energy>
  </scstep>
  <scstep>
   <time name="total">   12.98   13.08</time>
   <energy>
    <i name="e_fr_energy">   -762.78209804 </i>
    <i name="e_wo_entrp">   -762.78209804 </i>
    <i name="e_0_energy">   -762.78209804 </i>
   </energy>
  </scstep>
  <scstep>
   <time name="total">    7.35    7.45</time>
   <energy>
    <i name="e_fr_energy">   -740.45219396 </i>
    <i name="e_wo_entrp">   -740.45219396 </i>
    <i name="e_0_energy">   -740.45219396 </i>
   </energy>
  </scstep>
  <scstep>
   <time name="total">    9.30    9.38</time>
   <energy>
    <i name="e_fr_energy">   -761.03967145 </i>
    <i name="e_wo_entrp">   -761.03967145 </i>
    <i name="e_0_energy">   -761.03967145 </i>
   </energy>
  </scstep>
  <scstep>
   <time name="total">    9.93   10.01</time>
   <energy>
    <i name="e_fr_energy">   -761.42038152 </i>
    <i name="e_wo_entrp">   -761.42038152 </i>
    <i name="e_0_energy">   -761.42038152 </i>
   </energy>
  </scstep>
  <scstep>
   <time name="total">   10.13   10.21</time>
   <energy>
    <i name="e_fr_energy">   -761.52881223 </i>
    <i name="e_wo_entrp">   -761.52881223 </i>
    <i name="e_0_energy">   -761.52881223 </i>
   </energy>
  </scstep>
  <scstep>
   <time name="total">   10.90   10.99</time>
   <energy>
    <i name="e_fr_energy">   -761.51920055 </i>
    <i name="e_wo_entrp">   -761.51920055 </i>
    <i name="e_0_energy">   -761.51920055 </i>
   </energy>
  </scstep>
  <scstep>
   <time name="total">   11.75   11.85</time>
   <energy>
    <i name="e_fr_energy">   -761.59727983 </i>
    <i name="e_wo_entrp">   -761.59727983 </i>
    <i name="e_0_energy">   -761.59727983 </i>
   </energy>
  </scstep>
  <scstep>
   <time name="total">   12.13   12.24</time>
   <energy>
    <i name="e_fr_energy">   -761.68735609 </i>
    <i name="e_wo_entrp">   -761.68735609 </i>
    <i name="e_0_energy">   -761.68735609 </i>
   </energy>
  </scstep>
  <scstep>
   <time name="total">   12.38   12.48</time>
   <energy>
    <i name="e_fr_energy">   -761.76072371 </i>
    <i name="e_wo_entrp">   -761.76072371 </i>
    <i name="e_0_energy">   -761.76072371 </i>
   </energy>
  </scstep>
  <scstep>
   <time name="total">   12.50   12.60</time>
   <energy>
    <i name="e_fr_energy">   -761.77166615 </i>
    <i name="e_wo_entrp">   -761.77166615 </i>
    <i name="e_0_energy">   -761.77166615 </i>
   </energy>
  </scstep>
  <scstep>
   <time name="total">   12.38   12.49</time>
   <energy>
    <i name="e_fr_energy">   -761.78284908 </i>
    <i name="e_wo_entrp">   -761.78284908 </i>
    <i name="e_0_energy">   -761.78284908 </i>
   </energy>
  </scstep>
  <scstep>
   <time name="total">   12.32   12.42</time>
   <energy>
    <i name="e_fr_energy">   -761.78576545 </i>
    <i name="e_wo_entrp">   -761.78576545 </i>
    <i name="e_0_energy">   -761.78576545 </i>
   </energy>
  </scstep>
  <scstep>
   <time name="total">   12.31   12.41</time>
   <energy>
    <i name="e_fr_energy">   -761.78693254 </i>
    <i name="e_wo_entrp">   -761.78693254 </i>
    <i name="e_0_energy">   -761.78693254 </i>
   </energy>
  </scstep>
  <scstep>
   <time name="total">   12.21   12.32</time>
   <energy>
    <i name="e_fr_energy">   -761.78719760 </i>
    <i name="e_wo_entrp">   -761.78719760 </i>
    <i name="e_0_energy">   -761.78719760 </i>
   </energy>
  </scstep>
  <scstep>
   <time name="total">   12.20   12.30</time>
   <energy>
    <i name="e_fr_energy">   -761.78742974 </i>
    <i name="e_wo_entrp">   -761.78742974 </i>
    <i name="e_0_energy">   -761.78742974 </i>
   </energy>
  </scstep>
  <scstep>
   <time name="total">   12.25   12.35</time>
   <energy>
    <i name="e_fr_energy">   -761.78765961 </i>
    <i name="e_wo_entrp">   -761.78765961 </i>
    <i name="e_0_energy">   -761.78765961 </i>
   </energy>
  </scstep>
  <scstep>
   <time name="total">   12.17   12.28</time>
   <energy>
    <i name="e_fr_energy">   -761.78760469 </i>
    <i name="e_wo_entrp">   -761.78760469 </i>
    <i name="e_0_energy">   -761.78760469 </i>
   </energy>
  </scstep>
  <scstep>
   <time name="total">   12.32   12.42</time>
   <energy>
    <i name="e_fr_energy">   -761.78782758 </i>
    <i name="e_wo_entrp">   -761.78782758 </i>
    <i name="e_0_energy">   -761.78782758 </i>
   </energy>
  </scstep>
  <scstep>
   <time name="total">   12.32   12.42</time>
   <energy>
    <i name="e_fr_energy">   -761.78764382 </i>
    <i name="e_wo_entrp">   -761.78764382 </i>
    <i name="e_0_energy">   -761.78764382 </i>
   </energy>
  </scstep>
  <scstep>
   <time name="total">   12.37   12.47</time>
   <energy>
    <i name="e_fr_energy">   -761.78791655 </i>
    <i name="e_wo_entrp">   -761.78791655 </i>
    <i name="e_0_energy">   -761.78791655 </i>
   </energy>
  </scstep>
  <scstep>
   <time name="total">   12.46   12.57</time>
   <energy>
    <i name="e_fr_energy">   -761.78776484 </i>
    <i name="e_wo_entrp">   -761.78776484 </i>
    <i name="e_0_energy">   -761.78776484 </i>
   </energy>
  </scstep>
  <scstep>
   <time name="total">   12.62   12.73</time>
   <energy>
    <i name="e_fr_energy">   -761.78790030 </i>
    <i name="e_wo_entrp">   -761.78790030 </i>
    <i name="e_0_energy">   -761.78790030 </i>
   </energy>
  </scstep>
  <scstep>
   <time name="total">    7.26    7.32</time>
   <energy>
    <i name="e_fr_energy">   -739.88833479 </i>
    <i name="e_wo_entrp">   -739.88833479 </i>
    <i name="e_0_energy">   -739.88833479 </i>
   </energy>
  </scstep>
  <scstep>
   <time name="total">    9.33    9.41</time>
   <energy>
    <i name="e_fr_energy">   -760.57879531 </i>
    <i name="e_wo_entrp">   -760.57879531 </i>
    <i name="e_0_energy">   -760.57879531 </i>
   </energy>
  </scstep>
  <scstep>
   <time name="total">    9.94   10.03</time>
   <energy>
    <i name="e_fr_energy">   -760.93876374 </i>
    <i name="e_wo_entrp">   -760.93876374 </i>
    <i name="e_0_energy">   -760.93876374 </i>
   </energy>
  </scstep>
  <scstep>
   <time name="total">   10.15   10.24</time>
   <energy>
    <i name="e_fr_energy">   -761.01538890 </i>
    <i name="e_wo_entrp">   -761.01538890 </i>
    <i name="e_0_energy">   -761.01538890 </i>
   </energy>
  </scstep>
  <scstep>
   <time name="total">   10.48   10.57</time>
   <energy>
    <i name="e_fr_energy">   -761.00322323 </i>
    <i name="e_wo_entrp">   -761.00322323 </i>
    <i name="e_0_energy">   -761.00322323 </i>
   </energy>
  </scstep>
  <scstep>
   <time name="total">   11.79   11.88</time>
   <energy>
    <i name="e_fr_energy">   -761.08667399 </i>
    <i name="e_wo_entrp">   -761.08667399 </i>
    <i name="e_0_energy">   -761.08667399 </i>
   </energy>
  </scstep>
  <scstep>
   <time name="total">   12.08   12.18</time>
   <energy>
    <i name="e_fr_energy">   -761.17513482 </i>
    <i name="e_wo_entrp">   -761.17513482 </i>
    <i name="e_0_energy">   -761.17513482 </i>
   </energy>
  </scstep>
  <scstep>
   <time name="total">   12.34   12.44</time>
   <energy>
    <i name="e_fr_energy">   -761.25272221 </i>
    <i name="e_wo_entrp">   -761.25272221 </i>
    <i name="e_0_energy">   -761.25272221 </i>
   </energy>
  </scstep>
  <scstep>
   <time name="total">   12.59   12.69</time>
   <energy>
    <i name="e_fr_energy">   -761.26044181 </i>
    <i name="e_wo_entrp">   -761.26044181 </i>
    <i name="e_0_energy">   -761.26044181 </i>
   </energy>
  </scstep>
  <scstep>
   <time name="total">   12.33   12.43</time>
   <energy>
    <i name="e_fr_energy">   -761.27115163 </i>
    <i name="e_wo_entrp">   -761.27115163 </i>
    <i name="e_0_energy">   -761.27115163 </i>
   </energy>
  </scstep>
  <scstep>
   <time name="total">   12.36   12.46</time>
   <energy>
    <i name="e_fr_energy">   -761.27303050 </i>
    <i name="e_wo_entrp">   -761.27303050 </i>
    <i name="e_0_energy">   -761.27303050 </i>
   </energy>
  </scstep>
  <scstep>
   <time name="total">   12.20   12.31</time>
   <energy>
    <i name="e_fr_energy">   -761.27408389 </i>
    <i name="e_wo_entrp">   -761.27408389 </i>
    <i name="e_0_energy">   -761.27408389 </i>
   </energy>
  </scstep>
  <scstep>
   <time name="total">   12.16   12.26</time>
   <energy>
    <i name="e_fr_energy">   -761.27466359 </i>
    <i name="e_wo_entrp">   -761.27466359 </i>
    <i name="e_0_energy">   -761.27466359 </i>
   </energy>
  </scstep>
  <scstep>
   <time name="total">   12.18   12.28</time>
   <energy>
    <i name="e_fr_energy">   -761.27500741 </i>
    <i name="e_wo_entrp">   -761.27500741 </i>
    <i name="e_0_energy">   -761.27500741 </i>
   </energy>
  </scstep>
  <scstep>
   <time name="total">   12.21   12.31</time>
   <energy>
    <i name="e_fr_energy">   -761.27532485 </i>
    <i name="e_wo_entrp">   -761.27532485 </i>
    <i name="e_0_energy">   -761.27532485 </i>
   </energy>
  </scstep>
  <scstep>
   <time name="total">   12.22   12.32</time>
   <energy>
    <i name="e_fr_energy">   -761.27525487 </i>
    <i name="e_wo_entrp">   -761.27525487 </i>
    <i name="e_0_energy">   -761.27525487 </i>
   </energy>
  </scstep>
  <scstep>
   <time name="total">   12.27   12.37</time>
   <energy>
    <i name="e_fr_energy">   -761.27543423 </i>
    <i name="e_wo_entrp">   -761.27543423 </i>
    <i name="e_0_energy">   -761.27543423 </i>
   </energy>
  </scstep>
  <scstep>
   <time name="total">   12.28   12.38</time>
   <energy>
    <i name="e_fr_energy">   -761.27528344 </i>
    <i name="e_wo_entrp">   -761.27528344 </i>
    <i name="e_0_energy">   -761.27528344 </i>
   </energy>
  </scstep>
  <scstep>
   <time name="total">   12.43   12.53</time>
   <energy>
    <i name="e_fr_energy">   -761.27541252 </i>
    <i name="e_wo_entrp">   -761.27541252 </i>
    <i name="e_0_energy">   -761.27541252 </i>
   </energy>
  </scstep>
  <scstep>
   <time name="total">   12.49   12.60</time>
   <energy>
    <i name="e_fr_energy">   -761.27526439 </i>
    <i name="e_wo_entrp">   -761.27526439 </i>
    <i name="e_0_energy">   -761.27526439 </i>
   </energy>
  </scstep>
  <scstep>
   <time name="total">   12.54   12.64</time>
   <energy>
    <i name="e_fr_energy">   -761.27544237 </i>
    <i name="e_wo_entrp">   -761.27544237 </i>
    <i name="e_0_energy">   -761.27544237 </i>
   </energy>
  </scstep>
  <scstep>
   <time name="total">   12.61   12.71</time>
   <energy>
    <i name="e_fr_energy">   -761.27529792 </i>
    <i name="e_wo_entrp">   -761.27529792 </i>
    <i name="e_0_energy">   -761.27529792 </i>
   </energy>
  </scstep>
  <scstep>
   <time name="total">   12.69   12.80</time>
   <energy>
    <i name="e_fr_energy">   -761.27546974 </i>
    <i name="e_wo_entrp">   -761.27546974 </i>
    <i name="e_0_energy">   -761.27546974 </i>
   </energy>
  </scstep>
  <scstep>
   <time name="total">   12.78   12.89</time>
   <energy>
    <i name="e_fr_energy">   -761.27535062 </i>
    <i name="e_wo_entrp">   -761.27535062 </i>
    <i name="e_0_energy">   -761.27535062 </i>
   </energy>
  </scstep>
  <scstep>
   <time name="total">   12.85   12.96</time>
   <energy>
    <i name="e_fr_energy">   -761.27544769 </i>
    <i name="e_wo_entrp">   -761.27544769 </i>
    <i name="e_0_energy">   -761.27544769 </i>
   </energy>
  </scstep>
  <scstep>
   <time name="total">   12.81   12.92</time>
   <energy>
    <i name="e_fr_energy">   -761.27536908 </i>
    <i name="e_wo_entrp">   -761.27536908 </i>
    <i name="e_0_energy">   -761.27536908 </i>
   </energy>
  </scstep>
  <scstep>
   <time name="total">    7.29    7.35</time>
   <energy>
    <i name="e_fr_energy">   -739.38589191 </i>
    <i name="e_wo_entrp">   -739.38589191 </i>
    <i name="e_0_energy">   -739.38589191 </i>
   </energy>
  </scstep>
  <scstep>
   <time name="total">    8.85    8.92</time>
   <energy>
    <i name="e_fr_energy">   -760.65287131 </i>
    <i name="e_wo_entrp">   -760.65287131 </i>
    <i name="e_0_energy">   -760.65287131 </i>
   </energy>
  </scstep>
  <scstep>
   <time name="total">   10.07   10.15</time>
   <energy>
    <i name="e_fr_energy">   -761.76538397 </i>
    <i name="e_wo_entrp">   -761.76538397 </i>
    <i name="e_0_energy">   -761.76538397 </i>
   </energy>
  </scstep>
  <scstep>
   <time name="total">   10.13   10.21</time>
   <energy>
    <i name="e_fr_energy">   -762.19603743 </i>
    <i name="e_wo_entrp">   -762.19603743 </i>
    <i name="e_0_energy">   -762.19603743 </i>
   </energy>
  </scstep>
  <scstep>
   <time name="total">   10.51   10.60</time>
   <energy>
    <i name="e_fr_energy">   -762.52676578 </i>
    <i name="e_wo_entrp">   -762.52676578 </i>
    <i name="e_0_energy">   -762.52676578 </i>
   </energy>
  </scstep>
  <scstep>
   <time name="total">   11.80   11.90</time>
   <energy>
    <i name="e_fr_energy">   -762.65319792 </i>
    <i name="e_wo_entrp">   -762.65319792 </i>
    <i name="e_0_energy">   -762.65319792 </i>
   </energy>
  </scstep>
  <scstep>
   <time name="total">   11.87   11.97</time>
   <energy>
    <i name="e_fr_energy">   -762.71958728 </i>
    <i name="e_wo_entrp">   -762.71958728 </i>
    <i name="e_0_energy">   -762.71958728 </i>
   </energy>
  </scstep>
  <scstep>
   <time name="total">   12.04   12.14</time>
   <energy>
    <i name="e_fr_energy">   -762.77849806 </i>
    <i name="e_wo_entrp">   -762.77849806 </i>
    <i name="e_0_energy">   -762.77849806 </i>
   </energy>
  </scstep>
  <scstep>
   <time name="total">   12.49   12.60</time>
   <energy>
    <i name="e_fr_energy">   -762.79053440 </i>
    <i name="e_wo_entrp">   -762.79053440 </i>
    <i name="e_0_energy">   -762.79053440 </i>
   </energy>
  </scstep>
  <scstep>
   <time name="total">   12.33   12.44</time>
   <energy>
    <i name="e_fr_energy">   -762.79206955 </i>
    <i name="e_wo_entrp">   -762.79206955 </i>
    <i name="e_0_energy">   -762.79206955 </i>
   </energy>
  </scstep>
  <scstep>
   <time name="total">   12.35   12.45</time>
   <energy>
    <i name="e_fr_energy">   -762.78900754 </i>
    <i name="e_wo_entrp">   -762.78900754 </i>
    <i name="e_0_energy">   -762.78900754 </i>
   </energy>
  </scstep>
  <scstep>
   <time name="total">   12.80   12.90</time>
   <energy>
    <i name="e_fr_energy">   -762.78259417 </i>
    <i name="e_wo_entrp">   -762.78259417 </i>
    <i name="e_0_energy">   -762.78259417 </i>
   </energy>
  </scstep>
  <scstep>
   <time name="total">   12.57   12.67</time>
   <energy>
    <i name="e_fr_energy">   -762.78155942 </i>
    <i name="e_wo_entrp">   -762.78155942 </i>
    <i name="e_0_energy">   -762.78155942 </i>
   </energy>
  </scstep>
  <scstep>
   <time name="total">   12.48   12.58</time>
   <energy>
    <i name="e_fr_energy">   -762.78128388 </i>
    <i name="e_wo_entrp">   -762.78128388 </i>
    <i name="e_0_energy">   -762.78128388 </i>
   </energy>
  </scstep>
  <scstep>
   <time name="total">   12.64   12.74</time>
   <energy>
    <i name="e_fr_energy">   -762.78232202 </i>
    <i name="e_wo_entrp">   -762.78232202 </i>
    <i name="e_0_energy">   -762.78232202 </i>
   </energy>
  </scstep>
  <scstep>
   <time name="total">   12.90   13.01</time>
   <energy>
    <i name="e_fr_energy">   -762.78169638 </i>
    <i name="e_wo_entrp">   -762.78169638 </i>
    <i name="e_0_energy">   -762.78169638 </i>
   </energy>
  </scstep>
  <scstep>
   <time name="total">   12.84   12.95</time>
   <energy>
    <i name="e_fr_energy">   -762.78293110 </i>
    <i name="e_wo_entrp">   -762.78293110 </i>
    <i name="e_0_energy">   -762.78293110 </i>
   </energy>
  </scstep>
  <scstep>
   <time name="total">   12.86   12.96</time>
   <energy>
    <i name="e_fr_energy">   -762.78242386 </i>
    <i name="e_wo_entrp">   -762.78242386 </i>
    <i name="e_0_energy">   -762.78242386 </i>
   </energy>
  </scstep>
  <scstep>
   <time name="total">   12.84   12.94</time>
   <energy>
    <i name="e_fr_energy">   -762.78287321 </i>
    <i name="e_wo_entrp">   -762.78287321 </i>
    <i name="e_0_energy">   -762.78287321 </i>
   </energy>
  </scstep>
  <scstep>
   <time name="total">   12.86   12.97</time>
   <energy>
    <i name="e_fr_energy">   -762.78212469 </i>
    <i name="e_wo_entrp">   -762.78212469 </i>
    <i name="e_0_energy">   -762.78212469 </i>
   </energy>
  </scstep>
  <scstep>
   <time name="total">   12.92   13.03</time>
   <energy>
    <i name="e_fr_energy">   -762.78264917 </i>
    <i name="e_wo_entrp">   -762.78264917 </i>
    <i name="e_0_energy">   -762.78264917 </i>
   </energy>
  </scstep>
  <scstep>
   <time name="total">   13.03   13.14</time>
   <energy>
    <i name="e_fr_energy">   -762.78219491 </i>
    <i name="e_wo_entrp">   -762.78219491 </i>
    <i name="e_0_energy">   -762.78219491 </i>
   </energy>
  </scstep>
  <scstep>
   <time name="total">    7.30    7.36</time>
   <energy>
    <i name="e_fr_energy">   -740.45044533 </i>
    <i name="e_wo_entrp">   -740.45044533 </i>
    <i name="e_0_energy">   -740.45044533 </i>
   </energy>
  </scstep>
  <scstep>
   <time name="total">    9.28    9.36</time>
   <energy>
    <i name="e_fr_energy">   -761.04518329 </i>
    <i name="e_wo_entrp">   -761.04518329 </i>
    <i name="e_0_energy">   -761.04518329 </i>
   </energy>
  </scstep>
  <scstep>
   <time name="total">    9.94   10.02</time>
   <energy>
    <i name="e_fr_energy">   -761.41495712 </i>
    <i name="e_wo_entrp">   -761.41495712 </i>
    <i name="e_0_energy">   -761.41495712 </i>
   </energy>
  </scstep>
  <scstep>
   <time name="total">   10.19   10.28</time>
   <energy>
    <i name="e_fr_energy">   -761.52564659 </i>
    <i name="e_wo_entrp">   -761.52564659 </i>
    <i name="e_0_energy">   -761.52564659 </i>
   </energy>
  </scstep>
  <scstep>
   <time name="total">   10.91   11.00</time>
   <energy>
    <i name="e_fr_energy">   -761.51524108 </i>
    <i name="e_wo_entrp">   -761.51524108 </i>
    <i name="e_0_energy">   -761.51524108 </i>
   </energy>
  </scstep>
  <scstep>
   <time name="total">   11.72   11.82</time>
   <energy>
    <i name="e_fr_energy">   -761.59414569 </i>
    <i name="e_wo_entrp">   -761.59414569 </i>
    <i name="e_0_energy">   -761.59414569 </i>
   </energy>
  </scstep>
  <scstep>
   <time name="total">   12.12   12.22</time>
   <energy>
    <i name="e_fr_energy">   -761.68595167 </i>
    <i name="e_wo_entrp">   -761.68595167 </i>
    <i name="e_0_energy">   -761.68595167 </i>
   </energy>
  </scstep>
  <scstep>
   <time name="total">   12.35   12.45</time>
   <energy>
    <i name="e_fr_energy">   -761.76239313 </i>
    <i name="e_wo_entrp">   -761.76239313 </i>
    <i name="e_0_energy">   -761.76239313 </i>
   </energy>
  </scstep>
  <scstep>
   <time name="total">   12.55   12.66</time>
   <energy>
    <i name="e_fr_energy">   -761.77316833 </i>
    <i name="e_wo_entrp">   -761.77316833 </i>
    <i name="e_0_energy">   -761.77316833 </i>
   </energy>
  </scstep>
  <scstep>
   <time name="total">   12.40   12.50</time>
   <energy>
    <i name="e_fr_energy">   -761.78423841 </i>
    <i name="e_wo_entrp">   -761.78423841 </i>
    <i name="e_0_energy">   -761.78423841 </i>
   </energy>
  </scstep>
  <scstep>
   <time name="total">   12.38   12.48</time>
   <energy>
    <i name="e_fr_energy">   -761.78741194 </i>
    <i name="e_wo_entrp">   -761.78741194 </i>
    <i name="e_0_energy">   -761.78741194 </i>
   </energy>
  </scstep>
  <scstep>
   <time name="total">   12.27   12.38</time>
   <energy>
    <i name="e_fr_energy">   -761.78852391 </i>
    <i name="e_wo_entrp">   -761.78852391 </i>
    <i name="e_0_energy">   -761.78852391 </i>
   </energy>
  </scstep>
  <scstep>
   <time name="total">   12.19   12.29</time>
   <energy>
    <i name="e_fr_energy">   -761.78871780 </i>
    <i name="e_wo_entrp">   -761.78871780 </i>
    <i name="e_0_energy">   -761.78871780 </i>
   </energy>
  </scstep>
  <scstep>
   <time name="total">   12.27   12.38</time>
   <energy>
    <i name="e_fr_energy">   -761.78906062 </i>
    <i name="e_wo_entrp">   -761.78906062 </i>
    <i name="e_0_energy">   -761.78906062 </i>
   </energy>
  </scstep>
  <scstep>
   <time name="total">   12.20   12.31</time>
   <energy>
    <i name="e_fr_energy">   -761.78915920 </i>
    <i name="e_wo_entrp">   -761.78915920 </i>
    <i name="e_0_energy">   -761.78915920 </i>
   </energy>
  </scstep>
  <scstep>
   <time name="total">   12.22   12.32</time>
   <energy>
    <i name="e_fr_energy">   -761.78923266 </i>
    <i name="e_wo_entrp">   -761.78923266 </i>
    <i name="e_0_energy">   -761.78923266 </i>
   </energy>
  </scstep>
  <scstep>
   <time name="total">   12.42   12.52</time>
   <energy>
    <i name="e_fr_energy">   -761.78936262 </i>
    <i name="e_wo_entrp">   -761.78936262 </i>
    <i name="e_0_energy">   -761.78936262 </i>
   </energy>
  </scstep>
  <scstep>
   <time name="total">   12.40   12.50</time>
   <energy>
    <i name="e_fr_energy">   -761.78926322 </i>
    <i name="e_wo_entrp">   -761.78926322 </i>
    <i name="e_0_energy">   -761.78926322 </i>
   </energy>
  </scstep>
  <scstep>
   <time name="total">   12.50   12.61</time>
   <energy>
    <i name="e_fr_energy">   -761.78947475 </i>
    <i name="e_wo_entrp">   -761.78947475 </i>
    <i name="e_0_energy">   -761.78947475 </i>
   </energy>
  </scstep>
  <scstep>
   <time name="total">   12.49   12.60</time>
   <energy>
    <i name="e_fr_energy">   -761.78933011 </i>
    <i name="e_wo_entrp">   -761.78933011 </i>
    <i name="e_0_energy">   -761.78933011 </i>
   </energy>
  </scstep>
  <scstep>
   <time name="total">   12.55   12.65</time>
   <energy>
    <i name="e_fr_energy">   -761.78954550 </i>
    <i name="e_wo_entrp">   -761.78954550 </i>
    <i name="e_0_energy">   -761.78954550 </i>
   </energy>
  </scstep>
  <scstep>
   <time name="total">    7.29    7.35</time>
   <energy>
    <i name="e_fr_energy">   -739.84329289 </i>
    <i name="e_wo_entrp">   -739.84329289 </i>
    <i name="e_0_energy">   -739.84329289 </i>
   </energy>
  </scstep>
  <scstep>
   <time name="total">    9.38    9.46</time>
   <energy>
    <i name="e_fr_energy">   -760.53719693 </i>
    <i name="e_wo_entrp">   -760.53719693 </i>
    <i name="e_0_energy">   -760.53719693 </i>
   </energy>
  </scstep>
  <scstep>
   <time name="total">    9.90   10.00</time>
   <energy>
    <i name="e_fr_energy">   -760.88810815 </i>
    <i name="e_wo_entrp">   -760.88810815 </i>
    <i name="e_0_energy">   -760.88810815 </i>
   </energy>
  </scstep>
  <scstep>
   <time name="total">   10.20   10.28</time>
   <energy>
    <i name="e_fr_energy">   -760.96571977 </i>
    <i name="e_wo_entrp">   -760.96571977 </i>
    <i name="e_0_energy">   -760.96571977 </i>
   </energy>
  </scstep>
  <scstep>
   <time name="total">   10.43   10.52</time>
   <energy>
    <i name="e_fr_energy">   -760.95614524 </i>
    <i name="e_wo_entrp">   -760.95614524 </i>
    <i name="e_0_energy">   -760.95614524 </i>
   </energy>
  </scstep>
  <scstep>
   <time name="total">   11.74   11.84</time>
   <energy>
    <i name="e_fr_energy">   -761.04117735 </i>
    <i name="e_wo_entrp">   -761.04117735 </i>
    <i name="e_0_energy">   -761.04117735 </i>
   </energy>
  </scstep>
  <scstep>
   <time name="total">   12.23   12.33</time>
   <energy>
    <i name="e_fr_energy">   -761.13092599 </i>
    <i name="e_wo_entrp">   -761.13092599 </i>
    <i name="e_0_energy">   -761.13092599 </i>
   </energy>
  </scstep>
  <scstep>
   <time name="total">   12.34   12.44</time>
   <energy>
    <i name="e_fr_energy">   -761.20935009 </i>
    <i name="e_wo_entrp">   -761.20935009 </i>
    <i name="e_0_energy">   -761.20935009 </i>
   </energy>
  </scstep>
  <scstep>
   <time name="total">   12.59   12.70</time>
   <energy>
    <i name="e_fr_energy">   -761.21648033 </i>
    <i name="e_wo_entrp">   -761.21648033 </i>
    <i name="e_0_energy">   -761.21648033 </i>
   </energy>
  </scstep>
  <scstep>
   <time name="total">   12.33   12.43</time>
   <energy>
    <i name="e_fr_energy">   -761.22708089 </i>
    <i name="e_wo_entrp">   -761.22708089 </i>
    <i name="e_0_energy">   -761.22708089 </i>
   </energy>
  </scstep>
  <scstep>
   <time name="total">   12.40   12.50</time>
   <energy>
    <i name="e_fr_energy">   -761.22861187 </i>
    <i name="e_wo_entrp">   -761.22861187 </i>
    <i name="e_0_energy">   -761.22861187 </i>
   </energy>
  </scstep>
  <scstep>
   <time name="total">   12.24   12.34</time>
   <energy>
    <i name="e_fr_energy">   -761.22960815 </i>
    <i name="e_wo_entrp">   -761.22960815 </i>
    <i name="e_0_energy">   -761.22960815 </i>
   </energy>
  </scstep>
  <scstep>
   <time name="total">   12.19   12.29</time>
   <energy>
    <i name="e_fr_energy">   -761.23017090 </i>
    <i name="e_wo_entrp">   -761.23017090 </i>
    <i name="e_0_energy">   -761.23017090 </i>
   </energy>
  </scstep>
  <scstep>
   <time name="total">   12.17   12.27</time>
   <energy>
    <i name="e_fr_energy">   -761.23042645 </i>
    <i name="e_wo_entrp">   -761.23042645 </i>
    <i name="e_0_energy">   -761.23042645 </i>
   </energy>
  </scstep>
  <scstep>
   <time name="total">   12.15   12.25</time>
   <energy>
    <i name="e_fr_energy">   -761.23070458 </i>
    <i name="e_wo_entrp">   -761.23070458 </i>
    <i name="e_0_energy">   -761.23070458 </i>
   </energy>
  </scstep>
  <scstep>
   <time name="total">   12.21   12.31</time>
   <energy>
    <i name="e_fr_energy">   -761.23065794 </i>
    <i name="e_wo_entrp">   -761.23065794 </i>
    <i name="e_0_energy">   -761.23065794 </i>
   </energy>
  </scstep>
  <scstep>
   <time name="total">   12.27   12.37</time>
   <energy>
    <i name="e_fr_energy">   -761.23080128 </i>
    <i name="e_wo_entrp">   -761.23080128 </i>
    <i name="e_0_energy">   -761.23080128 </i>
   </energy>
  </scstep>
  <scstep>
   <time name="total">   12.30   12.40</time>
   <energy>
    <i name="e_fr_energy">   -761.23066394 </i>
    <i name="e_wo_entrp">   -761.23066394 </i>
    <i name="e_0_energy">   -761.23066394 </i>
   </energy>
  </scstep>
  <scstep>
   <time name="total">   12.39   12.50</time>
   <energy>
    <i name="e_fr_energy">   -761.23083790 </i>
    <i name="e_wo_entrp">   -761.23083790 </i>
    <i name="e_0_energy">   -761.23083790 </i>
   </energy>
  </scstep>
  <scstep>
   <time name="total">   12.44   12.55</time>
   <energy>
    <i name="e_fr_energy">   -761.23078985 </i>
    <i name="e_wo_entrp">   -761.23078985 </i>
    <i name="e_0_energy">   -761.23078985 </i>
   </energy>
  </scstep>
  <scstep>
   <time name="total">   12.50   12.61</time>
   <energy>
    <i name="e_fr_energy">   -761.23085541 </i>
    <i name="e_wo_entrp">   -761.23085541 </i>
    <i name="e_0_energy">   -761.23085541 </i>
   </energy>
  </scstep>
  <scstep>
   <time name="total">   12.70   12.81</time>
   <energy>
    <i name="e_fr_energy">   -761.23079551 </i>
    <i name="e_wo_entrp">   -761.23079551 </i>
    <i name="e_0_energy">   -761.23079551 </i>
   </energy>
  </scstep>
  <scstep>
   <time name="total">   12.68   12.79</time>
   <energy>
    <i name="e_fr_energy">   -761.23095215 </i>
    <i name="e_wo_entrp">   -761.23095215 </i>
    <i name="e_0_energy">   -761.23095215 </i>
   </energy>
  </scstep>
  <scstep>
   <time name="total">   12.75   12.86</time>
   <energy>
    <i name="e_fr_energy">   -761.23085055 </i>
    <i name="e_wo_entrp">   -761.23085055 </i>
    <i name="e_0_energy">   -761.23085055 </i>
   </energy>
  </scstep>
  <scstep>
   <time name="total">   12.78   12.89</time>
   <energy>
    <i name="e_fr_energy">   -761.23103904 </i>
    <i name="e_wo_entrp">   -761.23103904 </i>
    <i name="e_0_energy">   -761.23103904 </i>
   </energy>
  </scstep>
  <scstep>
   <time name="total">   12.86   12.97</time>
   <energy>
    <i name="e_fr_energy">   -761.23095363 </i>
    <i name="e_wo_entrp">   -761.23095363 </i>
    <i name="e_0_energy">   -761.23095363 </i>
   </energy>
  </scstep>
  <scstep>
   <time name="total">    7.28    7.35</time>
   <energy>
    <i name="e_fr_energy">   -739.32350854 </i>
    <i name="e_wo_entrp">   -739.32350854 </i>
    <i name="e_0_energy">   -739.32350854 </i>
   </energy>
  </scstep>
  <scstep>
   <time name="total">    8.78    8.86</time>
   <energy>
    <i name="e_fr_energy">   -760.65671633 </i>
    <i name="e_wo_entrp">   -760.65671633 </i>
    <i name="e_0_energy">   -760.65671633 </i>
   </energy>
  </scstep>
  <scstep>
   <time name="total">    9.98   10.06</time>
   <energy>
    <i name="e_fr_energy">   -761.76268006 </i>
    <i name="e_wo_entrp">   -761.76268006 </i>
    <i name="e_0_energy">   -761.76268006 </i>
   </energy>
  </scstep>
  <scstep>
   <time name="total">   10.08   10.16</time>
   <energy>
    <i name="e_fr_energy">   -762.19262162 </i>
    <i name="e_wo_entrp">   -762.19262162 </i>
    <i name="e_0_energy">   -762.19262162 </i>
   </energy>
  </scstep>
  <scstep>
   <time name="total">   10.56   10.64</time>
   <energy>
    <i name="e_fr_energy">   -762.52304868 </i>
    <i name="e_wo_entrp">   -762.52304868 </i>
    <i name="e_0_energy">   -762.52304868 </i>
   </energy>
  </scstep>
  <scstep>
   <time name="total">   11.84   11.94</time>
   <energy>
    <i name="e_fr_energy">   -762.64784967 </i>
    <i name="e_wo_entrp">   -762.64784967 </i>
    <i name="e_0_energy">   -762.64784967 </i>
   </energy>
  </scstep>
  <scstep>
   <time name="total">   11.87   11.97</time>
   <energy>
    <i name="e_fr_energy">   -762.71530003 </i>
    <i name="e_wo_entrp">   -762.71530003 </i>
    <i name="e_0_energy">   -762.71530003 </i>
   </energy>
  </scstep>
  <scstep>
   <time name="total">   12.00   12.10</time>
   <energy>
    <i name="e_fr_energy">   -762.77701692 </i>
    <i name="e_wo_entrp">   -762.77701692 </i>
    <i name="e_0_energy">   -762.77701692 </i>
   </energy>
  </scstep>
  <scstep>
   <time name="total">   12.53   12.63</time>
   <energy>
    <i name="e_fr_energy">   -762.79013602 </i>
    <i name="e_wo_entrp">   -762.79013602 </i>
    <i name="e_0_energy">   -762.79013602 </i>
   </energy>
  </scstep>
  <scstep>
   <time name="total">   12.41   12.52</time>
   <energy>
    <i name="e_fr_energy">   -762.79228393 </i>
    <i name="e_wo_entrp">   -762.79228393 </i>
    <i name="e_0_energy">   -762.79228393 </i>
   </energy>
  </scstep>
  <scstep>
   <time name="total">   12.32   12.42</time>
   <energy>
    <i name="e_fr_energy">   -762.78945470 </i>
    <i name="e_wo_entrp">   -762.78945470 </i>
    <i name="e_0_energy">   -762.78945470 </i>
   </energy>
  </scstep>
  <scstep>
   <time name="total">   12.78   12.89</time>
   <energy>
    <i name="e_fr_energy">   -762.78284572 </i>
    <i name="e_wo_entrp">   -762.78284572 </i>
    <i name="e_0_energy">   -762.78284572 </i>
   </energy>
  </scstep>
  <scstep>
   <time name="total">   12.58   12.69</time>
   <energy>
    <i name="e_fr_energy">   -762.78163487 </i>
    <i name="e_wo_entrp">   -762.78163487 </i>
    <i name="e_0_energy">   -762.78163487 </i>
   </energy>
  </scstep>
  <scstep>
   <time name="total">   12.56   12.67</time>
   <energy>
    <i name="e_fr_energy">   -762.78160038 </i>
    <i name="e_wo_entrp">   -762.78160038 </i>
    <i name="e_0_energy">   -762.78160038 </i>
   </energy>
  </scstep>
  <scstep>
   <time name="total">   12.70   12.81</time>
   <energy>
    <i name="e_fr_energy">   -762.78261271 </i>
    <i name="e_wo_entrp">   -762.78261271 </i>
    <i name="e_0_energy">   -762.78261271 </i>
   </energy>
  </scstep>
  <scstep>
   <time name="total">   12.96   13.07</time>
   <energy>
    <i name="e_fr_energy">   -762.78194796 </i>
    <i name="e_wo_entrp">   -762.78194796 </i>
    <i name="e_0_energy">   -762.78194796 </i>
   </energy>
  </scstep>
  <scstep>
   <time name="total">   12.78   12.89</time>
   <energy>
    <i name="e_fr_energy">   -762.78308480 </i>
    <i name="e_wo_entrp">   -762.78308480 </i>
    <i name="e_0_energy">   -762.78308480 </i>
   </energy>
  </scstep>
  <scstep>
   <time name="total">   12.85   12.96</time>
   <energy>
    <i name="e_fr_energy">   -762.78266494 </i>
    <i name="e_wo_entrp">   -762.78266494 </i>
    <i name="e_0_energy">   -762.78266494 </i>
   </energy>
  </scstep>
  <scstep>
   <time name="total">   12.83   12.94</time>
   <energy>
    <i name="e_fr_energy">   -762.78313655 </i>
    <i name="e_wo_entrp">   -762.78313655 </i>
    <i name="e_0_energy">   -762.78313655 </i>
   </energy>
  </scstep>
  <scstep>
   <time name="total">   12.93   13.04</time>
   <energy>
    <i name="e_fr_energy">   -762.78242103 </i>
    <i name="e_wo_entrp">   -762.78242103 </i>
    <i name="e_0_energy">   -762.78242103 </i>
   </energy>
  </scstep>
  <scstep>
   <time name="total">   12.95   13.05</time>
   <energy>
    <i name="e_fr_energy">   -762.78301170 </i>
    <i name="e_wo_entrp">   -762.78301170 </i>
    <i name="e_0_energy">   -762.78301170 </i>
   </energy>
  </scstep>
  <scstep>
   <time name="total">   13.00   13.11</time>
   <energy>
    <i name="e_fr_energy">   -762.78252697 </i>
    <i name="e_wo_entrp">   -762.78252697 </i>
    <i name="e_0_energy">   -762.78252697 </i>
   </energy>
  </scstep>
  <scstep>
   <time name="total">    7.35    7.41</time>
   <energy>
    <i name="e_fr_energy">   -740.45045067 </i>
    <i name="e_wo_entrp">   -740.45045067 </i>
    <i name="e_0_energy">   -740.45045067 </i>
   </energy>
  </scstep>
  <scstep>
   <time name="total">    9.30    9.38</time>
   <energy>
    <i name="e_fr_energy">   -761.04313607 </i>
    <i name="e_wo_entrp">   -761.04313607 </i>
    <i name="e_0_energy">   -761.04313607 </i>
   </energy>
  </scstep>
  <scstep>
   <time name="total">    9.94   10.03</time>
   <energy>
    <i name="e_fr_energy">   -761.41718381 </i>
    <i name="e_wo_entrp">   -761.41718381 </i>
    <i name="e_0_energy">   -761.41718381 </i>
   </energy>
  </scstep>
  <scstep>
   <time name="total">   10.12   10.20</time>
   <energy>
    <i name="e_fr_energy">   -761.52636307 </i>
    <i name="e_wo_entrp">   -761.52636307 </i>
    <i name="e_0_energy">   -761.52636307 </i>
   </energy>
  </scstep>
  <scstep>
   <time name="total">   10.89   10.98</time>
   <energy>
    <i name="e_fr_energy">   -761.51571685 </i>
    <i name="e_wo_entrp">   -761.51571685 </i>
    <i name="e_0_energy">   -761.51571685 </i>
   </energy>
  </scstep>
  <scstep>
   <time name="total">   11.71   11.81</time>
   <energy>
    <i name="e_fr_energy">   -761.59472912 </i>
    <i name="e_wo_entrp">   -761.59472912 </i>
    <i name="e_0_energy">   -761.59472912 </i>
   </energy>
  </scstep>
  <scstep>
   <time name="total">   12.17   12.27</time>
   <energy>
    <i name="e_fr_energy">   -761.68629038 </i>
    <i name="e_wo_entrp">   -761.68629038 </i>
    <i name="e_0_energy">   -761.68629038 </i>
   </energy>
  </scstep>
  <scstep>
   <time name="total">   12.35   12.46</time>
   <energy>
    <i name="e_fr_energy">   -761.76197376 </i>
    <i name="e_wo_entrp">   -761.76197376 </i>
    <i name="e_0_energy">   -761.76197376 </i>
   </energy>
  </scstep>
  <scstep>
   <time name="total">   12.51   12.61</time>
   <energy>
    <i name="e_fr_energy">   -761.77308065 </i>
    <i name="e_wo_entrp">   -761.77308065 </i>
    <i name="e_0_energy">   -761.77308065 </i>
   </energy>
  </scstep>
  <scstep>
   <time name="total">   12.40   12.50</time>
   <energy>
    <i name="e_fr_energy">   -761.78451312 </i>
    <i name="e_wo_entrp">   -761.78451312 </i>
    <i name="e_0_energy">   -761.78451312 </i>
   </energy>
  </scstep>
  <scstep>
   <time name="total">   12.36   12.46</time>
   <energy>
    <i name="e_fr_energy">   -761.78727646 </i>
    <i name="e_wo_entrp">   -761.78727646 </i>
    <i name="e_0_energy">   -761.78727646 </i>
   </energy>
  </scstep>
  <scstep>
   <time name="total">   12.36   12.46</time>
   <energy>
    <i name="e_fr_energy">   -761.78843604 </i>
    <i name="e_wo_entrp">   -761.78843604 </i>
    <i name="e_0_energy">   -761.78843604 </i>
   </energy>
  </scstep>
  <scstep>
   <time name="total">   12.22   12.33</time>
   <energy>
    <i name="e_fr_energy">   -761.78877428 </i>
    <i name="e_wo_entrp">   -761.78877428 </i>
    <i name="e_0_energy">   -761.78877428 </i>
   </energy>
  </scstep>
  <scstep>
   <time name="total">   12.26   12.37</time>
   <energy>
    <i name="e_fr_energy">   -761.78911228 </i>
    <i name="e_wo_entrp">   -761.78911228 </i>
    <i name="e_0_energy">   -761.78911228 </i>
   </energy>
  </scstep>
  <scstep>
   <time name="total">   12.21   12.31</time>
   <energy>
    <i name="e_fr_energy">   -761.78922860 </i>
    <i name="e_wo_entrp">   -761.78922860 </i>
    <i name="e_0_energy">   -761.78922860 </i>
   </energy>
  </scstep>
  <scstep>
   <time name="total">   12.27   12.37</time>
   <energy>
    <i name="e_fr_energy">   -761.78922778 </i>
    <i name="e_wo_entrp">   -761.78922778 </i>
    <i name="e_0_energy">   -761.78922778 </i>
   </energy>
  </scstep>
  <scstep>
   <time name="total">   12.34   12.45</time>
   <energy>
    <i name="e_fr_energy">   -761.78940327 </i>
    <i name="e_wo_entrp">   -761.78940327 </i>
    <i name="e_0_energy">   -761.78940327 </i>
   </energy>
  </scstep>
  <scstep>
   <time name="total">   12.31   12.42</time>
   <energy>
    <i name="e_fr_energy">   -761.78926936 </i>
    <i name="e_wo_entrp">   -761.78926936 </i>
    <i name="e_0_energy">   -761.78926936 </i>
   </energy>
  </scstep>
  <scstep>
   <time name="total">   12.38   12.48</time>
   <energy>
    <i name="e_fr_energy">   -761.78948746 </i>
    <i name="e_wo_entrp">   -761.78948746 </i>
    <i name="e_0_energy">   -761.78948746 </i>
   </energy>
  </scstep>
  <scstep>
   <time name="total">   12.55   12.65</time>
   <energy>
    <i name="e_fr_energy">   -761.78931932 </i>
    <i name="e_wo_entrp">   -761.78931932 </i>
    <i name="e_0_energy">   -761.78931932 </i>
   </energy>
  </scstep>
  <scstep>
   <time name="total">   12.61   12.72</time>
   <energy>
    <i name="e_fr_energy">   -761.78958316 </i>
    <i name="e_wo_entrp">   -761.78958316 </i>
    <i name="e_0_energy">   -761.78958316 </i>
   </energy>
  </scstep>
  <scstep>
   <time name="total">    7.29    7.35</time>
   <energy>
    <i name="e_fr_energy">   -739.84329576 </i>
    <i name="e_wo_entrp">   -739.84329576 </i>
    <i name="e_0_energy">   -739.84329576 </i>
   </energy>
  </scstep>
  <scstep>
   <time name="total">    9.35    9.43</time>
   <energy>
    <i name="e_fr_energy">   -760.53390903 </i>
    <i name="e_wo_entrp">   -760.53390903 </i>
    <i name="e_0_energy">   -760.53390903 </i>
   </energy>
  </scstep>
  <scstep>
   <time name="total">    9.92   10.00</time>
   <energy>
    <i name="e_fr_energy">   -760.89106193 </i>
    <i name="e_wo_entrp">   -760.89106193 </i>
    <i name="e_0_energy">   -760.89106193 </i>
   </energy>
  </scstep>
  <scstep>
   <time name="total">   10.16   10.25</time>
   <energy>
    <i name="e_fr_energy">   -760.96789366 </i>
    <i name="e_wo_entrp">   -760.96789366 </i>
    <i name="e_0_energy">   -760.96789366 </i>
   </energy>
  </scstep>
  <scstep>
   <time name="total">   10.46   10.55</time>
   <energy>
    <i name="e_fr_energy">   -760.95763057 </i>
    <i name="e_wo_entrp">   -760.95763057 </i>
    <i name="e_0_energy">   -760.95763057 </i>
   </energy>
  </scstep>
  <scstep>
   <time name="total">   11.79   11.88</time>
   <energy>
    <i name="e_fr_energy">   -761.04186861 </i>
    <i name="e_wo_entrp">   -761.04186861 </i>
    <i name="e_0_energy">   -761.04186861 </i>
   </energy>
  </scstep>
  <scstep>
   <time name="total">   12.15   12.25</time>
   <energy>
    <i name="e_fr_energy">   -761.13017551 </i>
    <i name="e_wo_entrp">   -761.13017551 </i>
    <i name="e_0_energy">   -761.13017551 </i>
   </energy>
  </scstep>
  <scstep>
   <time name="total">   12.33   12.44</time>
   <energy>
    <i name="e_fr_energy">   -761.20896205 </i>
    <i name="e_wo_entrp">   -761.20896205 </i>
    <i name="e_0_energy">   -761.20896205 </i>
   </energy>
  </scstep>
  <scstep>
   <time name="total">   12.56   12.66</time>
   <energy>
    <i name="e_fr_energy">   -761.21684893 </i>
    <i name="e_wo_entrp">   -761.21684893 </i>
    <i name="e_0_energy">   -761.21684893 </i>
   </energy>
  </scstep>
  <scstep>
   <time name="total">   12.42   12.53</time>
   <energy>
    <i name="e_fr_energy">   -761.22705111 </i>
    <i name="e_wo_entrp">   -761.22705111 </i>
    <i name="e_0_energy">   -761.22705111 </i>
   </energy>
  </scstep>
  <scstep>
   <time name="total">   12.39   12.49</time>
   <energy>
    <i name="e_fr_energy">   -761.22894561 </i>
    <i name="e_wo_entrp">   -761.22894561 </i>
    <i name="e_0_energy">   -761.22894561 </i>
   </energy>
  </scstep>
  <scstep>
   <time name="total">   12.23   12.33</time>
   <energy>
    <i name="e_fr_energy">   -761.22978256 </i>
    <i name="e_wo_entrp">   -761.22978256 </i>
    <i name="e_0_energy">   -761.22978256 </i>
   </energy>
  </scstep>
  <scstep>
   <time name="total">   12.20   12.30</time>
   <energy>
    <i name="e_fr_energy">   -761.23033252 </i>
    <i name="e_wo_entrp">   -761.23033252 </i>
    <i name="e_0_energy">   -761.23033252 </i>
   </energy>
  </scstep>
  <scstep>
   <time name="total">   12.19   12.29</time>
   <energy>
    <i name="e_fr_energy">   -761.23059061 </i>
    <i name="e_wo_entrp">   -761.23059061 </i>
    <i name="e_0_energy">   -761.23059061 </i>
   </energy>
  </scstep>
  <scstep>
   <time name="total">   12.21   12.31</time>
   <energy>
    <i name="e_fr_energy">   -761.23088954 </i>
    <i name="e_wo_entrp">   -761.23088954 </i>
    <i name="e_0_energy">   -761.23088954 </i>
   </energy>
  </scstep>
  <scstep>
   <time name="total">   12.20   12.30</time>
   <energy>
    <i name="e_fr_energy">   -761.23079185 </i>
    <i name="e_wo_entrp">   -761.23079185 </i>
    <i name="e_0_energy">   -761.23079185 </i>
   </energy>
  </scstep>
  <scstep>
   <time name="total">   12.25   12.35</time>
   <energy>
    <i name="e_fr_energy">   -761.23100157 </i>
    <i name="e_wo_entrp">   -761.23100157 </i>
    <i name="e_0_energy">   -761.23100157 </i>
   </energy>
  </scstep>
  <scstep>
   <time name="total">   12.31   12.41</time>
   <energy>
    <i name="e_fr_energy">   -761.23080329 </i>
    <i name="e_wo_entrp">   -761.23080329 </i>
    <i name="e_0_energy">   -761.23080329 </i>
   </energy>
  </scstep>
  <scstep>
   <time name="total">   12.44   12.55</time>
   <energy>
    <i name="e_fr_energy">   -761.23100330 </i>
    <i name="e_wo_entrp">   -761.23100330 </i>
    <i name="e_0_energy">   -761.23100330 </i>
   </energy>
  </scstep>
  <scstep>
   <time name="total">   12.43   12.53</time>
   <energy>
    <i name="e_fr_energy">   -761.23093051 </i>
    <i name="e_wo_entrp">   -761.23093051 </i>
    <i name="e_0_energy">   -761.23093051 </i>
   </energy>
  </scstep>
  <scstep>
   <time name="total">   12.55   12.66</time>
   <energy>
    <i name="e_fr_energy">   -761.23107708 </i>
    <i name="e_wo_entrp">   -761.23107708 </i>
    <i name="e_0_energy">   -761.23107708 </i>
   </energy>
  </scstep>
  <scstep>
   <time name="total">   12.61   12.72</time>
   <energy>
    <i name="e_fr_energy">   -761.23094098 </i>
    <i name="e_wo_entrp">   -761.23094098 </i>
    <i name="e_0_energy">   -761.23094098 </i>
   </energy>
  </scstep>
  <scstep>
   <time name="total">   12.67   12.78</time>
   <energy>
    <i name="e_fr_energy">   -761.23111553 </i>
    <i name="e_wo_entrp">   -761.23111553 </i>
    <i name="e_0_energy">   -761.23111553 </i>
   </energy>
  </scstep>
  <scstep>
   <time name="total">   12.75   12.85</time>
   <energy>
    <i name="e_fr_energy">   -761.23102069 </i>
    <i name="e_wo_entrp">   -761.23102069 </i>
    <i name="e_0_energy">   -761.23102069 </i>
   </energy>
  </scstep>
  <scstep>
   <time name="total">   12.78   12.89</time>
   <energy>
    <i name="e_fr_energy">   -761.23116351 </i>
    <i name="e_wo_entrp">   -761.23116351 </i>
    <i name="e_0_energy">   -761.23116351 </i>
   </energy>
  </scstep>
  <scstep>
   <time name="total">   12.79   12.90</time>
   <energy>
    <i name="e_fr_energy">   -761.23107584 </i>
    <i name="e_wo_entrp">   -761.23107584 </i>
    <i name="e_0_energy">   -761.23107584 </i>
   </energy>
  </scstep>
  <scstep>
   <time name="total">   12.84   12.95</time>
   <energy>
    <i name="e_fr_energy">   -761.23115423 </i>
    <i name="e_wo_entrp">   -761.23115423 </i>
    <i name="e_0_energy">   -761.23115423 </i>
   </energy>
  </scstep>
  <scstep>
   <time name="total">    7.26    7.36</time>
   <energy>
    <i name="e_fr_energy">   -739.32351372 </i>
    <i name="e_wo_entrp">   -739.32351372 </i>
    <i name="e_0_energy">   -739.32351372 </i>
   </energy>
  </scstep>
  <scstep>
   <time name="total">    8.79    8.86</time>
   <energy>
    <i name="e_fr_energy">   -760.65443350 </i>
    <i name="e_wo_entrp">   -760.65443350 </i>
    <i name="e_0_energy">   -760.65443350 </i>
   </energy>
  </scstep>
  <scstep>
   <time name="total">   10.00   10.08</time>
   <energy>
    <i name="e_fr_energy">   -761.76572577 </i>
    <i name="e_wo_entrp">   -761.76572577 </i>
    <i name="e_0_energy">   -761.76572577 </i>
   </energy>
  </scstep>
  <scstep>
   <time name="total">   10.09   10.17</time>
   <energy>
    <i name="e_fr_energy">   -762.19393670 </i>
    <i name="e_wo_entrp">   -762.19393670 </i>
    <i name="e_0_energy">   -762.19393670 </i>
   </energy>
  </scstep>
  <scstep>
   <time name="total">   10.50   10.58</time>
   <energy>
    <i name="e_fr_energy">   -762.52345610 </i>
    <i name="e_wo_entrp">   -762.52345610 </i>
    <i name="e_0_energy">   -762.52345610 </i>
   </energy>
  </scstep>
  <scstep>
   <time name="total">   11.88   11.98</time>
   <energy>
    <i name="e_fr_energy">   -762.64785657 </i>
    <i name="e_wo_entrp">   -762.64785657 </i>
    <i name="e_0_energy">   -762.64785657 </i>
   </energy>
  </scstep>
  <scstep>
   <time name="total">   11.84   11.94</time>
   <energy>
    <i name="e_fr_energy">   -762.71542397 </i>
    <i name="e_wo_entrp">   -762.71542397 </i>
    <i name="e_0_energy">   -762.71542397 </i>
   </energy>
  </scstep>
  <scstep>
   <time name="total">   12.00   12.10</time>
   <energy>
    <i name="e_fr_energy">   -762.77696032 </i>
    <i name="e_wo_entrp">   -762.77696032 </i>
    <i name="e_0_energy">   -762.77696032 </i>
   </energy>
  </scstep>
  <scstep>
   <time name="total">   12.57   12.68</time>
   <energy>
    <i name="e_fr_energy">   -762.79013332 </i>
    <i name="e_wo_entrp">   -762.79013332 </i>
    <i name="e_0_energy">   -762.79013332 </i>
   </energy>
  </scstep>
  <scstep>
   <time name="total">   12.40   12.50</time>
   <energy>
    <i name="e_fr_energy">   -762.79229237 </i>
    <i name="e_wo_entrp">   -762.79229237 </i>
    <i name="e_0_energy">   -762.79229237 </i>
   </energy>
  </scstep>
  <scstep>
   <time name="total">   12.47   12.57</time>
   <energy>
    <i name="e_fr_energy">   -762.78944200 </i>
    <i name="e_wo_entrp">   -762.78944200 </i>
    <i name="e_0_energy">   -762.78944200 </i>
   </energy>
  </scstep>
  <scstep>
   <time name="total">   12.77   12.87</time>
   <energy>
    <i name="e_fr_energy">   -762.78290604 </i>
    <i name="e_wo_entrp">   -762.78290604 </i>
    <i name="e_0_energy">   -762.78290604 </i>
   </energy>
  </scstep>
  <scstep>
   <time name="total">   12.54   12.64</time>
   <energy>
    <i name="e_fr_energy">   -762.78174651 </i>
    <i name="e_wo_entrp">   -762.78174651 </i>
    <i name="e_0_energy">   -762.78174651 </i>
   </energy>
  </scstep>
  <scstep>
   <time name="total">   12.55   12.66</time>
   <energy>
    <i name="e_fr_energy">   -762.78152831 </i>
    <i name="e_wo_entrp">   -762.78152831 </i>
    <i name="e_0_energy">   -762.78152831 </i>
   </energy>
  </scstep>
  <scstep>
   <time name="total">   12.71   12.81</time>
   <energy>
    <i name="e_fr_energy">   -762.78253742 </i>
    <i name="e_wo_entrp">   -762.78253742 </i>
    <i name="e_0_energy">   -762.78253742 </i>
   </energy>
  </scstep>
  <scstep>
   <time name="total">   12.96   13.08</time>
   <energy>
    <i name="e_fr_energy">   -762.78200867 </i>
    <i name="e_wo_entrp">   -762.78200867 </i>
    <i name="e_0_energy">   -762.78200867 </i>
   </energy>
  </scstep>
  <scstep>
   <time name="total">   12.88   12.99</time>
   <energy>
    <i name="e_fr_energy">   -762.78312038 </i>
    <i name="e_wo_entrp">   -762.78312038 </i>
    <i name="e_0_energy">   -762.78312038 </i>
   </energy>
  </scstep>
  <scstep>
   <time name="total">   12.83   12.94</time>
   <energy>
    <i name="e_fr_energy">   -762.78255452 </i>
    <i name="e_wo_entrp">   -762.78255452 </i>
    <i name="e_0_energy">   -762.78255452 </i>
   </energy>
  </scstep>
  <scstep>
   <time name="total">   12.90   13.00</time>
   <energy>
    <i name="e_fr_energy">   -762.78305958 </i>
    <i name="e_wo_entrp">   -762.78305958 </i>
    <i name="e_0_energy">   -762.78305958 </i>
   </energy>
  </scstep>
  <scstep>
   <time name="total">   12.87   12.98</time>
   <energy>
    <i name="e_fr_energy">   -762.78252062 </i>
    <i name="e_wo_entrp">   -762.78252062 </i>
    <i name="e_0_energy">   -762.78252062 </i>
   </energy>
  </scstep>
  <scstep>
   <time name="total">   12.99   13.10</time>
   <energy>
    <i name="e_fr_energy">   -762.78302572 </i>
    <i name="e_wo_entrp">   -762.78302572 </i>
    <i name="e_0_energy">   -762.78302572 </i>
   </energy>
  </scstep>
  <scstep>
   <time name="total">   13.15   13.27</time>
   <energy>
    <i name="e_fr_energy">   -762.78252217 </i>
    <i name="e_wo_entrp">   -762.78252217 </i>
    <i name="e_0_energy">   -762.78252217 </i>
   </energy>
  </scstep>
  <scstep>
   <time name="total">    8.81    8.89</time>
   <energy>
    <i name="e_fr_energy">    -57.60248395 </i>
    <i name="e_wo_entrp">    -57.60248395 </i>
    <i name="e_0_energy">    -57.60248395 </i>
   </energy>
  </scstep>
  <scstep>
   <time name="total">    9.24    9.32</time>
   <energy>
    <i name="e_fr_energy">    -51.00763792 </i>
    <i name="e_wo_entrp">    -51.00763792 </i>
    <i name="e_0_energy">    -51.00763792 </i>
   </energy>
  </scstep>
  <scstep>
   <time name="total">   10.12   10.20</time>
   <energy>
    <i name="e_fr_energy">    -51.18400843 </i>
    <i name="e_wo_entrp">    -51.18400843 </i>
    <i name="e_0_energy">    -51.18400843 </i>
   </energy>
  </scstep>
  <scstep>
   <time name="total">   10.52   10.61</time>
   <energy>
    <i name="e_fr_energy">    -51.11462901 </i>
    <i name="e_wo_entrp">    -51.11462901 </i>
    <i name="e_0_energy">    -51.11462901 </i>
   </energy>
  </scstep>
  <scstep>
   <time name="total">   11.52   11.61</time>
   <energy>
    <i name="e_fr_energy">    -51.11021383 </i>
    <i name="e_wo_entrp">    -51.11021383 </i>
    <i name="e_0_energy">    -51.11021383 </i>
   </energy>
  </scstep>
  <scstep>
   <time name="total">   11.89   11.99</time>
   <energy>
    <i name="e_fr_energy">    -51.11812775 </i>
    <i name="e_wo_entrp">    -51.11812775 </i>
    <i name="e_0_energy">    -51.11812775 </i>
   </energy>
  </scstep>
  <scstep>
   <time name="total">   12.30   12.40</time>
   <energy>
    <i name="e_fr_energy">    -51.12472664 </i>
    <i name="e_wo_entrp">    -51.12472664 </i>
    <i name="e_0_energy">    -51.12472664 </i>
   </energy>
  </scstep>
  <scstep>
   <time name="total">   11.89   11.99</time>
   <energy>
    <i name="e_fr_energy">    -51.12223475 </i>
    <i name="e_wo_entrp">    -51.12223475 </i>
    <i name="e_0_energy">    -51.12223475 </i>
   </energy>
  </scstep>
  <scstep>
   <time name="total">   12.50   12.60</time>
   <energy>
    <i name="e_fr_energy">    -51.12265479 </i>
    <i name="e_wo_entrp">    -51.12265479 </i>
    <i name="e_0_energy">    -51.12265479 </i>
   </energy>
  </scstep>
  <scstep>
   <time name="total">   12.61   12.71</time>
   <energy>
    <i name="e_fr_energy">    -51.12233536 </i>
    <i name="e_wo_entrp">    -51.12233536 </i>
    <i name="e_0_energy">    -51.12233536 </i>
   </energy>
  </scstep>
  <scstep>
   <time name="total">   12.62   12.72</time>
   <energy>
    <i name="e_fr_energy">    -51.12174660 </i>
    <i name="e_wo_entrp">    -51.12174660 </i>
    <i name="e_0_energy">    -51.12174660 </i>
   </energy>
  </scstep>
  <scstep>
   <time name="total">   12.73   12.83</time>
   <energy>
    <i name="e_fr_energy">    -51.12159822 </i>
    <i name="e_wo_entrp">    -51.12159822 </i>
    <i name="e_0_energy">    -51.12159822 </i>
   </energy>
  </scstep>
  <scstep>
   <time name="total">   12.80   12.90</time>
   <energy>
    <i name="e_fr_energy">    -51.12241093 </i>
    <i name="e_wo_entrp">    -51.12241093 </i>
    <i name="e_0_energy">    -51.12241093 </i>
   </energy>
  </scstep>
  <scstep>
   <time name="total">   12.88   12.99</time>
   <energy>
    <i name="e_fr_energy">    -51.12222840 </i>
    <i name="e_wo_entrp">    -51.12222840 </i>
    <i name="e_0_energy">    -51.12222840 </i>
   </energy>
  </scstep>
  <scstep>
   <time name="total">   12.92   13.03</time>
   <energy>
    <i name="e_fr_energy">    -51.12182825 </i>
    <i name="e_wo_entrp">    -51.12182825 </i>
    <i name="e_0_energy">    -51.12182825 </i>
   </energy>
  </scstep>
  <scstep>
   <time name="total">   12.94   13.05</time>
   <energy>
    <i name="e_fr_energy">    -51.12189331 </i>
    <i name="e_wo_entrp">    -51.12189331 </i>
    <i name="e_0_energy">    -51.12189331 </i>
   </energy>
  </scstep>
  <scstep>
   <time name="total">   12.94   13.05</time>
   <energy>
    <i name="e_fr_energy">    -51.12195629 </i>
    <i name="e_wo_entrp">    -51.12195629 </i>
    <i name="e_0_energy">    -51.12195629 </i>
   </energy>
  </scstep>
  <scstep>
   <time name="total">   12.96   13.06</time>
   <energy>
    <i name="e_fr_energy">    -51.12184524 </i>
    <i name="e_wo_entrp">    -51.12184524 </i>
    <i name="e_0_energy">    -51.12184524 </i>
   </energy>
  </scstep>
  <scstep>
   <time name="total">   12.97   13.07</time>
   <energy>
    <i name="e_fr_energy">    -51.12184902 </i>
    <i name="e_wo_entrp">    -51.12184902 </i>
    <i name="e_0_energy">    -51.12184902 </i>
   </energy>
  </scstep>
  <scstep>
   <time name="total">    8.84    8.92</time>
   <energy>
    <i name="e_fr_energy">    -56.80338984 </i>
    <i name="e_wo_entrp">    -56.80338984 </i>
    <i name="e_0_energy">    -56.80338984 </i>
   </energy>
  </scstep>
  <scstep>
   <time name="total">    9.46    9.54</time>
   <energy>
    <i name="e_fr_energy">    -50.83119137 </i>
    <i name="e_wo_entrp">    -50.83119137 </i>
    <i name="e_0_energy">    -50.83119137 </i>
   </energy>
  </scstep>
  <scstep>
   <time name="total">   10.44   10.52</time>
   <energy>
    <i name="e_fr_energy">    -51.01741787 </i>
    <i name="e_wo_entrp">    -51.01741787 </i>
    <i name="e_0_energy">    -51.01741787 </i>
   </energy>
  </scstep>
  <scstep>
   <time name="total">   10.46   10.55</time>
   <energy>
    <i name="e_fr_energy">    -50.94800504 </i>
    <i name="e_wo_entrp">    -50.94800504 </i>
    <i name="e_0_energy">    -50.94800504 </i>
   </energy>
  </scstep>
  <scstep>
   <time name="total">   11.83   11.92</time>
   <energy>
    <i name="e_fr_energy">    -50.94038623 </i>
    <i name="e_wo_entrp">    -50.94038623 </i>
    <i name="e_0_energy">    -50.94038623 </i>
   </energy>
  </scstep>
  <scstep>
   <time name="total">   12.10   12.20</time>
   <energy>
    <i name="e_fr_energy">    -50.94692051 </i>
    <i name="e_wo_entrp">    -50.94692051 </i>
    <i name="e_0_energy">    -50.94692051 </i>
   </energy>
  </scstep>
  <scstep>
   <time name="total">   12.38   12.48</time>
   <energy>
    <i name="e_fr_energy">    -50.95265441 </i>
    <i name="e_wo_entrp">    -50.95265441 </i>
    <i name="e_0_energy">    -50.95265441 </i>
   </energy>
  </scstep>
  <scstep>
   <time name="total">   11.92   12.02</time>
   <energy>
    <i name="e_fr_energy">    -50.95363731 </i>
    <i name="e_wo_entrp">    -50.95363731 </i>
    <i name="e_0_energy">    -50.95363731 </i>
   </energy>
  </scstep>
  <scstep>
   <time name="total">   12.53   12.63</time>
   <energy>
    <i name="e_fr_energy">    -50.95366353 </i>
    <i name="e_wo_entrp">    -50.95366353 </i>
    <i name="e_0_energy">    -50.95366353 </i>
   </energy>
  </scstep>
  <scstep>
   <time name="total">   12.61   12.71</time>
   <energy>
    <i name="e_fr_energy">    -50.95376004 </i>
    <i name="e_wo_entrp">    -50.95376004 </i>
    <i name="e_0_energy">    -50.95376004 </i>
   </energy>
  </scstep>
  <scstep>
   <time name="total">   12.69   12.79</time>
   <energy>
    <i name="e_fr_energy">    -50.95377637 </i>
    <i name="e_wo_entrp">    -50.95377637 </i>
    <i name="e_0_energy">    -50.95377637 </i>
   </energy>
  </scstep>
  <scstep>
   <time name="total">   12.82   12.93</time>
   <energy>
    <i name="e_fr_energy">    -50.95346824 </i>
    <i name="e_wo_entrp">    -50.95346824 </i>
    <i name="e_0_energy">    -50.95346824 </i>
   </energy>
  </scstep>
  <scstep>
   <time name="total">   12.86   12.97</time>
   <energy>
    <i name="e_fr_energy">    -50.95356111 </i>
    <i name="e_wo_entrp">    -50.95356111 </i>
    <i name="e_0_energy">    -50.95356111 </i>
   </energy>
  </scstep>
  <scstep>
   <time name="total">   12.91   13.02</time>
   <energy>
    <i name="e_fr_energy">    -50.95361217 </i>
    <i name="e_wo_entrp">    -50.95361217 </i>
    <i name="e_0_energy">    -50.95361217 </i>
   </energy>
  </scstep>
  <scstep>
   <time name="total">   12.94   13.05</time>
   <energy>
    <i name="e_fr_energy">    -50.95357800 </i>
    <i name="e_wo_entrp">    -50.95357800 </i>
    <i name="e_0_energy">    -50.95357800 </i>
   </energy>
  </scstep>
  <scstep>
   <time name="total">   12.97   13.08</time>
   <energy>
    <i name="e_fr_energy">    -50.95350628 </i>
    <i name="e_wo_entrp">    -50.95350628 </i>
    <i name="e_0_energy">    -50.95350628 </i>
   </energy>
  </scstep>
  <scstep>
   <time name="total">   13.04   13.15</time>
   <energy>
    <i name="e_fr_energy">    -50.95365342 </i>
    <i name="e_wo_entrp">    -50.95365342 </i>
    <i name="e_0_energy">    -50.95365342 </i>
   </energy>
  </scstep>
  <scstep>
   <time name="total">   13.09   13.20</time>
   <energy>
    <i name="e_fr_energy">    -50.95360450 </i>
    <i name="e_wo_entrp">    -50.95360450 </i>
    <i name="e_0_energy">    -50.95360450 </i>
   </energy>
  </scstep>
  <scstep>
   <time name="total">   13.03   13.14</time>
   <energy>
    <i name="e_fr_energy">    -50.95375849 </i>
    <i name="e_wo_entrp">    -50.95375849 </i>
    <i name="e_0_energy">    -50.95375849 </i>
   </energy>
  </scstep>
  <scstep>
   <time name="total">   13.03   13.14</time>
   <energy>
    <i name="e_fr_energy">    -50.95360475 </i>
    <i name="e_wo_entrp">    -50.95360475 </i>
    <i name="e_0_energy">    -50.95360475 </i>
   </energy>
  </scstep>
  <scstep>
   <time name="total">   13.12   13.23</time>
   <energy>
    <i name="e_fr_energy">    -50.95369119 </i>
    <i name="e_wo_entrp">    -50.95369119 </i>
    <i name="e_0_energy">    -50.95369119 </i>
   </energy>
  </scstep>
  <scstep>
   <time name="total">   13.10   13.21</time>
   <energy>
    <i name="e_fr_energy">    -50.95355298 </i>
    <i name="e_wo_entrp">    -50.95355298 </i>
    <i name="e_0_energy">    -50.95355298 </i>
   </energy>
  </scstep>
  <scstep>
   <time name="total">   13.12   13.23</time>
   <energy>
    <i name="e_fr_energy">    -50.95365456 </i>
    <i name="e_wo_entrp">    -50.95365456 </i>
    <i name="e_0_energy">    -50.95365456 </i>
   </energy>
  </scstep>
  <scstep>
   <time name="total">   13.16   13.27</time>
   <energy>
    <i name="e_fr_energy">    -50.95360283 </i>
    <i name="e_wo_entrp">    -50.95360283 </i>
    <i name="e_0_energy">    -50.95360283 </i>
   </energy>
  </scstep>
  <scstep>
   <time name="total">    8.57    8.64</time>
   <energy>
    <i name="e_fr_energy">    -57.23472046 </i>
    <i name="e_wo_entrp">    -57.23472046 </i>
    <i name="e_0_energy">    -57.23472046 </i>
   </energy>
  </scstep>
  <scstep>
   <time name="total">    9.35    9.44</time>
   <energy>
    <i name="e_fr_energy">    -50.61907641 </i>
    <i name="e_wo_entrp">    -50.61907641 </i>
    <i name="e_0_energy">    -50.61907641 </i>
   </energy>
  </scstep>
  <scstep>
   <time name="total">    9.91    9.99</time>
   <energy>
    <i name="e_fr_energy">    -51.07194402 </i>
    <i name="e_wo_entrp">    -51.07194402 </i>
    <i name="e_0_energy">    -51.07194402 </i>
   </energy>
  </scstep>
  <scstep>
   <time name="total">   10.04   10.12</time>
   <energy>
    <i name="e_fr_energy">    -51.46501744 </i>
    <i name="e_wo_entrp">    -51.46501744 </i>
    <i name="e_0_energy">    -51.46501744 </i>
   </energy>
  </scstep>
  <scstep>
   <time name="total">   11.51   11.60</time>
   <energy>
    <i name="e_fr_energy">    -51.53573729 </i>
    <i name="e_wo_entrp">    -51.53573729 </i>
    <i name="e_0_energy">    -51.53573729 </i>
   </energy>
  </scstep>
  <scstep>
   <time name="total">   11.26   11.36</time>
   <energy>
    <i name="e_fr_energy">    -51.51855462 </i>
    <i name="e_wo_entrp">    -51.51855462 </i>
    <i name="e_0_energy">    -51.51855462 </i>
   </energy>
  </scstep>
  <scstep>
   <time name="total">   11.89   11.99</time>
   <energy>
    <i name="e_fr_energy">    -51.50053560 </i>
    <i name="e_wo_entrp">    -51.50053560 </i>
    <i name="e_0_energy">    -51.50053560 </i>
   </energy>
  </scstep>
  <scstep>
   <time name="total">   11.83   11.93</time>
   <energy>
    <i name="e_fr_energy">    -51.49461074 </i>
    <i name="e_wo_entrp">    -51.49461074 </i>
    <i name="e_0_energy">    -51.49461074 </i>
   </energy>
  </scstep>
  <scstep>
   <time name="total">   12.33   12.43</time>
   <energy>
    <i name="e_fr_energy">    -51.49785054 </i>
    <i name="e_wo_entrp">    -51.49785054 </i>
    <i name="e_0_energy">    -51.49785054 </i>
   </energy>
  </scstep>
  <scstep>
   <time name="total">   11.68   11.78</time>
   <energy>
    <i name="e_fr_energy">    -51.49996084 </i>
    <i name="e_wo_entrp">    -51.49996084 </i>
    <i name="e_0_energy">    -51.49996084 </i>
   </energy>
  </scstep>
  <scstep>
   <time name="total">   12.26   12.36</time>
   <energy>
    <i name="e_fr_energy">    -51.49898290 </i>
    <i name="e_wo_entrp">    -51.49898290 </i>
    <i name="e_0_energy">    -51.49898290 </i>
   </energy>
  </scstep>
  <scstep>
   <time name="total">   12.29   12.39</time>
   <energy>
    <i name="e_fr_energy">    -51.49671137 </i>
    <i name="e_wo_entrp">    -51.49671137 </i>
    <i name="e_0_energy">    -51.49671137 </i>
   </energy>
  </scstep>
  <scstep>
   <time name="total">   12.55   12.66</time>
   <energy>
    <i name="e_fr_energy">    -51.49562634 </i>
    <i name="e_wo_entrp">    -51.49562634 </i>
    <i name="e_0_energy">    -51.49562634 </i>
   </energy>
  </scstep>
  <scstep>
   <time name="total">   12.65   12.75</time>
   <energy>
    <i name="e_fr_energy">    -51.49516560 </i>
    <i name="e_wo_entrp">    -51.49516560 </i>
    <i name="e_0_energy">    -51.49516560 </i>
   </energy>
  </scstep>
  <scstep>
   <time name="total">   12.83   12.94</time>
   <energy>
    <i name="e_fr_energy">    -51.49506593 </i>
    <i name="e_wo_entrp">    -51.49506593 </i>
    <i name="e_0_energy">    -51.49506593 </i>
   </energy>
  </scstep>
  <scstep>
   <time name="total">   12.85   12.97</time>
   <energy>
    <i name="e_fr_energy">    -51.49516865 </i>
    <i name="e_wo_entrp">    -51.49516865 </i>
    <i name="e_0_energy">    -51.49516865 </i>
   </energy>
  </scstep>
  <scstep>
   <time name="total">   12.89   13.00</time>
   <energy>
    <i name="e_fr_energy">    -51.49527565 </i>
    <i name="e_wo_entrp">    -51.49527565 </i>
    <i name="e_0_energy">    -51.49527565 </i>
   </energy>
  </scstep>
  <scstep>
   <time name="total">   12.92   13.03</time>
   <energy>
    <i name="e_fr_energy">    -51.49525968 </i>
    <i name="e_wo_entrp">    -51.49525968 </i>
    <i name="e_0_energy">    -51.49525968 </i>
   </energy>
  </scstep>
  <scstep>
   <time name="total">   13.00   13.11</time>
   <energy>
    <i name="e_fr_energy">    -51.49520049 </i>
    <i name="e_wo_entrp">    -51.49520049 </i>
    <i name="e_0_energy">    -51.49520049 </i>
   </energy>
  </scstep>
  <scstep>
   <time name="total">   13.00   13.11</time>
   <energy>
    <i name="e_fr_energy">    -51.49530968 </i>
    <i name="e_wo_entrp">    -51.49530968 </i>
    <i name="e_0_energy">    -51.49530968 </i>
   </energy>
  </scstep>
  <scstep>
   <time name="total">   13.10   13.21</time>
   <energy>
    <i name="e_fr_energy">    -51.49522633 </i>
    <i name="e_wo_entrp">    -51.49522633 </i>
    <i name="e_0_energy">    -51.49522633 </i>
   </energy>
  </scstep>
  <scstep>
   <time name="total">   13.04   13.14</time>
   <energy>
    <i name="e_fr_energy">    -51.49525902 </i>
    <i name="e_wo_entrp">    -51.49525902 </i>
    <i name="e_0_energy">    -51.49525902 </i>
   </energy>
  </scstep>
  <scstep>
   <time name="total">   13.03   13.14</time>
   <energy>
    <i name="e_fr_energy">    -51.49526231 </i>
    <i name="e_wo_entrp">    -51.49526231 </i>
    <i name="e_0_energy">    -51.49526231 </i>
   </energy>
  </scstep>
  <scstep>
   <time name="total">   13.11   13.22</time>
   <energy>
    <i name="e_fr_energy">    -51.49523002 </i>
    <i name="e_wo_entrp">    -51.49523002 </i>
    <i name="e_0_energy">    -51.49523002 </i>
   </energy>
  </scstep>
  <scstep>
   <time name="total">    8.80    8.87</time>
   <energy>
    <i name="e_fr_energy">    -57.60248569 </i>
    <i name="e_wo_entrp">    -57.60248569 </i>
    <i name="e_0_energy">    -57.60248569 </i>
   </energy>
  </scstep>
  <scstep>
   <time name="total">    9.24    9.32</time>
   <energy>
    <i name="e_fr_energy">    -51.00854251 </i>
    <i name="e_wo_entrp">    -51.00854251 </i>
    <i name="e_0_energy">    -51.00854251 </i>
   </energy>
  </scstep>
  <scstep>
   <time name="total">   10.05   10.14</time>
   <energy>
    <i name="e_fr_energy">    -51.18367629 </i>
    <i name="e_wo_entrp">    -51.18367629 </i>
    <i name="e_0_energy">    -51.18367629 </i>
   </energy>
  </scstep>
  <scstep>
   <time name="total">   10.54   10.62</time>
   <energy>
    <i name="e_fr_energy">    -51.11484343 </i>
    <i name="e_wo_entrp">    -51.11484343 </i>
    <i name="e_0_energy">    -51.11484343 </i>
   </energy>
  </scstep>
  <scstep>
   <time name="total">   11.52   11.62</time>
   <energy>
    <i name="e_fr_energy">    -51.11023156 </i>
    <i name="e_wo_entrp">    -51.11023156 </i>
    <i name="e_0_energy">    -51.11023156 </i>
   </energy>
  </scstep>
  <scstep>
   <time name="total">   11.94   12.04</time>
   <energy>
    <i name="e_fr_energy">    -51.11802113 </i>
    <i name="e_wo_entrp">    -51.11802113 </i>
    <i name="e_0_energy">    -51.11802113 </i>
   </energy>
  </scstep>
  <scstep>
   <time name="total">   12.33   12.43</time>
   <energy>
    <i name="e_fr_energy">    -51.12470550 </i>
    <i name="e_wo_entrp">    -51.12470550 </i>
    <i name="e_0_energy">    -51.12470550 </i>
   </energy>
  </scstep>
  <scstep>
   <time name="total">   11.97   12.07</time>
   <energy>
    <i name="e_fr_energy">    -51.12221119 </i>
    <i name="e_wo_entrp">    -51.12221119 </i>
    <i name="e_0_energy">    -51.12221119 </i>
   </energy>
  </scstep>
  <scstep>
   <time name="total">   12.48   12.59</time>
   <energy>
    <i name="e_fr_energy">    -51.12267287 </i>
    <i name="e_wo_entrp">    -51.12267287 </i>
    <i name="e_0_energy">    -51.12267287 </i>
   </energy>
  </scstep>
  <scstep>
   <time name="total">   12.61   12.72</time>
   <energy>
    <i name="e_fr_energy">    -51.12235371 </i>
    <i name="e_wo_entrp">    -51.12235371 </i>
    <i name="e_0_energy">    -51.12235371 </i>
   </energy>
  </scstep>
  <scstep>
   <time name="total">   12.73   12.84</time>
   <energy>
    <i name="e_fr_energy">    -51.12176655 </i>
    <i name="e_wo_entrp">    -51.12176655 </i>
    <i name="e_0_energy">    -51.12176655 </i>
   </energy>
  </scstep>
  <scstep>
   <time name="total">   12.80   12.91</time>
   <energy>
    <i name="e_fr_energy">    -51.12161067 </i>
    <i name="e_wo_entrp">    -51.12161067 </i>
    <i name="e_0_energy">    -51.12161067 </i>
   </energy>
  </scstep>
  <scstep>
   <time name="total">   12.81   12.91</time>
   <energy>
    <i name="e_fr_energy">    -51.12243536 </i>
    <i name="e_wo_entrp">    -51.12243536 </i>
    <i name="e_0_energy">    -51.12243536 </i>
   </energy>
  </scstep>
  <scstep>
   <time name="total">   12.97   13.07</time>
   <energy>
    <i name="e_fr_energy">    -51.12229769 </i>
    <i name="e_wo_entrp">    -51.12229769 </i>
    <i name="e_0_energy">    -51.12229769 </i>
   </energy>
  </scstep>
  <scstep>
   <time name="total">   12.98   13.09</time>
   <energy>
    <i name="e_fr_energy">    -51.12190034 </i>
    <i name="e_wo_entrp">    -51.12190034 </i>
    <i name="e_0_energy">    -51.12190034 </i>
   </energy>
  </scstep>
  <scstep>
   <time name="total">   12.97   13.08</time>
   <energy>
    <i name="e_fr_energy">    -51.12187286 </i>
    <i name="e_wo_entrp">    -51.12187286 </i>
    <i name="e_0_energy">    -51.12187286 </i>
   </energy>
  </scstep>
  <scstep>
   <time name="total">   13.01   13.11</time>
   <energy>
    <i name="e_fr_energy">    -51.12193844 </i>
    <i name="e_wo_entrp">    -51.12193844 </i>
    <i name="e_0_energy">    -51.12193844 </i>
   </energy>
  </scstep>
  <scstep>
   <time name="total">   13.02   13.12</time>
   <energy>
    <i name="e_fr_energy">    -51.12194377 </i>
    <i name="e_wo_entrp">    -51.12194377 </i>
    <i name="e_0_energy">    -51.12194377 </i>
   </energy>
  </scstep>
  <scstep>
   <time name="total">   12.99   13.10</time>
   <energy>
    <i name="e_fr_energy">    -51.12190446 </i>
    <i name="e_wo_entrp">    -51.12190446 </i>
    <i name="e_0_energy">    -51.12190446 </i>
   </energy>
  </scstep>
  <scstep>
   <time name="total">   13.08   13.20</time>
   <energy>
    <i name="e_fr_energy">    -51.12197912 </i>
    <i name="e_wo_entrp">    -51.12197912 </i>
    <i name="e_0_energy">    -51.12197912 </i>
   </energy>
  </scstep>
  <scstep>
   <time name="total">   13.08   13.19</time>
   <energy>
    <i name="e_fr_energy">    -51.12192408 </i>
    <i name="e_wo_entrp">    -51.12192408 </i>
    <i name="e_0_energy">    -51.12192408 </i>
   </energy>
  </scstep>
  <scstep>
   <time name="total">   13.08   13.18</time>
   <energy>
    <i name="e_fr_energy">    -51.12195705 </i>
    <i name="e_wo_entrp">    -51.12195705 </i>
    <i name="e_0_energy">    -51.12195705 </i>
   </energy>
  </scstep>
  <scstep>
   <time name="total">   13.09   13.19</time>
   <energy>
    <i name="e_fr_energy">    -51.12204128 </i>
    <i name="e_wo_entrp">    -51.12204128 </i>
    <i name="e_0_energy">    -51.12204128 </i>
   </energy>
  </scstep>
  <scstep>
   <time name="total">   13.16   13.27</time>
   <energy>
    <i name="e_fr_energy">    -51.12228366 </i>
    <i name="e_wo_entrp">    -51.12228366 </i>
    <i name="e_0_energy">    -51.12228366 </i>
   </energy>
  </scstep>
  <scstep>
   <time name="total">   13.14   13.25</time>
   <energy>
    <i name="e_fr_energy">    -51.12180997 </i>
    <i name="e_wo_entrp">    -51.12180997 </i>
    <i name="e_0_energy">    -51.12180997 </i>
   </energy>
  </scstep>
  <scstep>
   <time name="total">   13.11   13.22</time>
   <energy>
    <i name="e_fr_energy">    -51.12171140 </i>
    <i name="e_wo_entrp">    -51.12171140 </i>
    <i name="e_0_energy">    -51.12171140 </i>
   </energy>
  </scstep>
  <scstep>
   <time name="total">   13.11   13.22</time>
   <energy>
    <i name="e_fr_energy">    -51.12210666 </i>
    <i name="e_wo_entrp">    -51.12210666 </i>
    <i name="e_0_energy">    -51.12210666 </i>
   </energy>
  </scstep>
  <scstep>
   <time name="total">   13.12   13.23</time>
   <energy>
    <i name="e_fr_energy">    -51.12213904 </i>
    <i name="e_wo_entrp">    -51.12213904 </i>
    <i name="e_0_energy">    -51.12213904 </i>
   </energy>
  </scstep>
  <scstep>
   <time name="total">    8.84    8.91</time>
   <energy>
    <i name="e_fr_energy">    -56.80339356 </i>
    <i name="e_wo_entrp">    -56.80339356 </i>
    <i name="e_0_energy">    -56.80339356 </i>
   </energy>
  </scstep>
  <scstep>
   <time name="total">    9.41    9.49</time>
   <energy>
    <i name="e_fr_energy">    -50.83131004 </i>
    <i name="e_wo_entrp">    -50.83131004 </i>
    <i name="e_0_energy">    -50.83131004 </i>
   </energy>
  </scstep>
  <scstep>
   <time name="total">   10.44   10.52</time>
   <energy>
    <i name="e_fr_energy">    -51.01631674 </i>
    <i name="e_wo_entrp">    -51.01631674 </i>
    <i name="e_0_energy">    -51.01631674 </i>
   </energy>
  </scstep>
  <scstep>
   <time name="total">   10.48   10.57</time>
   <energy>
    <i name="e_fr_energy">    -50.94788680 </i>
    <i name="e_wo_entrp">    -50.94788680 </i>
    <i name="e_0_energy">    -50.94788680 </i>
   </energy>
  </scstep>
  <scstep>
   <time name="total">   11.78   11.88</time>
   <energy>
    <i name="e_fr_energy">    -50.94013287 </i>
    <i name="e_wo_entrp">    -50.94013287 </i>
    <i name="e_0_energy">    -50.94013287 </i>
   </energy>
  </scstep>
  <scstep>
   <time name="total">   12.12   12.22</time>
   <energy>
    <i name="e_fr_energy">    -50.94678558 </i>
    <i name="e_wo_entrp">    -50.94678558 </i>
    <i name="e_0_energy">    -50.94678558 </i>
   </energy>
  </scstep>
  <scstep>
   <time name="total">   12.39   12.49</time>
   <energy>
    <i name="e_fr_energy">    -50.95263295 </i>
    <i name="e_wo_entrp">    -50.95263295 </i>
    <i name="e_0_energy">    -50.95263295 </i>
   </energy>
  </scstep>
  <scstep>
   <time name="total">   11.88   11.98</time>
   <energy>
    <i name="e_fr_energy">    -50.95372644 </i>
    <i name="e_wo_entrp">    -50.95372644 </i>
    <i name="e_0_energy">    -50.95372644 </i>
   </energy>
  </scstep>
  <scstep>
   <time name="total">   12.53   12.64</time>
   <energy>
    <i name="e_fr_energy">    -50.95373063 </i>
    <i name="e_wo_entrp">    -50.95373063 </i>
    <i name="e_0_energy">    -50.95373063 </i>
   </energy>
  </scstep>
  <scstep>
   <time name="total">   12.59   12.70</time>
   <energy>
    <i name="e_fr_energy">    -50.95386669 </i>
    <i name="e_wo_entrp">    -50.95386669 </i>
    <i name="e_0_energy">    -50.95386669 </i>
   </energy>
  </scstep>
  <scstep>
   <time name="total">   12.73   12.84</time>
   <energy>
    <i name="e_fr_energy">    -50.95387615 </i>
    <i name="e_wo_entrp">    -50.95387615 </i>
    <i name="e_0_energy">    -50.95387615 </i>
   </energy>
  </scstep>
  <scstep>
   <time name="total">   12.71   12.82</time>
   <energy>
    <i name="e_fr_energy">    -50.95356166 </i>
    <i name="e_wo_entrp">    -50.95356166 </i>
    <i name="e_0_energy">    -50.95356166 </i>
   </energy>
  </scstep>
  <scstep>
   <time name="total">   12.80   12.91</time>
   <energy>
    <i name="e_fr_energy">    -50.95365462 </i>
    <i name="e_wo_entrp">    -50.95365462 </i>
    <i name="e_0_energy">    -50.95365462 </i>
   </energy>
  </scstep>
  <scstep>
   <time name="total">   12.90   13.01</time>
   <energy>
    <i name="e_fr_energy">    -50.95370443 </i>
    <i name="e_wo_entrp">    -50.95370443 </i>
    <i name="e_0_energy">    -50.95370443 </i>
   </energy>
  </scstep>
  <scstep>
   <time name="total">   12.94   13.05</time>
   <energy>
    <i name="e_fr_energy">    -50.95364983 </i>
    <i name="e_wo_entrp">    -50.95364983 </i>
    <i name="e_0_energy">    -50.95364983 </i>
   </energy>
  </scstep>
  <scstep>
   <time name="total">   12.91   13.02</time>
   <energy>
    <i name="e_fr_energy">    -50.95365022 </i>
    <i name="e_wo_entrp">    -50.95365022 </i>
    <i name="e_0_energy">    -50.95365022 </i>
   </energy>
  </scstep>
  <scstep>
   <time name="total">   12.94   13.05</time>
   <energy>
    <i name="e_fr_energy">    -50.95368946 </i>
    <i name="e_wo_entrp">    -50.95368946 </i>
    <i name="e_0_energy">    -50.95368946 </i>
   </energy>
  </scstep>
  <scstep>
   <time name="total">   12.95   13.06</time>
   <energy>
    <i name="e_fr_energy">    -50.95372441 </i>
    <i name="e_wo_entrp">    -50.95372441 </i>
    <i name="e_0_energy">    -50.95372441 </i>
   </energy>
  </scstep>
  <scstep>
   <time name="total">   13.01   13.13</time>
   <energy>
    <i name="e_fr_energy">    -50.95377797 </i>
    <i name="e_wo_entrp">    -50.95377797 </i>
    <i name="e_0_energy">    -50.95377797 </i>
   </energy>
  </scstep>
  <scstep>
   <time name="total">   13.02   13.12</time>
   <energy>
    <i name="e_fr_energy">    -50.95367530 </i>
    <i name="e_wo_entrp">    -50.95367530 </i>
    <i name="e_0_energy">    -50.95367530 </i>
   </energy>
  </scstep>
  <scstep>
   <time name="total">   13.01   13.12</time>
   <energy>
    <i name="e_fr_energy">    -50.95370803 </i>
    <i name="e_wo_entrp">    -50.95370803 </i>
    <i name="e_0_energy">    -50.95370803 </i>
   </energy>
  </scstep>
  <scstep>
   <time name="total">   13.06   13.17</time>
   <energy>
    <i name="e_fr_energy">    -50.95367246 </i>
    <i name="e_wo_entrp">    -50.95367246 </i>
    <i name="e_0_energy">    -50.95367246 </i>
   </energy>
  </scstep>
  <scstep>
   <time name="total">   13.09   13.20</time>
   <energy>
    <i name="e_fr_energy">    -50.95375545 </i>
    <i name="e_wo_entrp">    -50.95375545 </i>
    <i name="e_0_energy">    -50.95375545 </i>
   </energy>
  </scstep>
  <scstep>
   <time name="total">   13.16   13.28</time>
   <energy>
    <i name="e_fr_energy">    -50.95370748 </i>
    <i name="e_wo_entrp">    -50.95370748 </i>
    <i name="e_0_energy">    -50.95370748 </i>
   </energy>
  </scstep>
  <scstep>
   <time name="total">    8.56    8.63</time>
   <energy>
    <i name="e_fr_energy">    -57.23472219 </i>
    <i name="e_wo_entrp">    -57.23472219 </i>
    <i name="e_0_energy">    -57.23472219 </i>
   </energy>
  </scstep>
  <scstep>
   <time name="total">    9.37    9.45</time>
   <energy>
    <i name="e_fr_energy">    -50.61913321 </i>
    <i name="e_wo_entrp">    -50.61913321 </i>
    <i name="e_0_energy">    -50.61913321 </i>
   </energy>
  </scstep>
  <scstep>
   <time name="total">    9.93   10.01</time>
   <energy>
    <i name="e_fr_energy">    -51.07126839 </i>
    <i name="e_wo_entrp">    -51.07126839 </i>
    <i name="e_0_energy">    -51.07126839 </i>
   </energy>
  </scstep>
  <scstep>
   <time name="total">   10.07   10.16</time>
   <energy>
    <i name="e_fr_energy">    -51.46463151 </i>
    <i name="e_wo_entrp">    -51.46463151 </i>
    <i name="e_0_energy">    -51.46463151 </i>
   </energy>
  </scstep>
  <scstep>
   <time name="total">   11.53   11.63</time>
   <energy>
    <i name="e_fr_energy">    -51.53516048 </i>
    <i name="e_wo_entrp">    -51.53516048 </i>
    <i name="e_0_energy">    -51.53516048 </i>
   </energy>
  </scstep>
  <scstep>
   <time name="total">   11.19   11.28</time>
   <energy>
    <i name="e_fr_energy">    -51.51833724 </i>
    <i name="e_wo_entrp">    -51.51833724 </i>
    <i name="e_0_energy">    -51.51833724 </i>
   </energy>
  </scstep>
  <scstep>
   <time name="total">   11.91   12.01</time>
   <energy>
    <i name="e_fr_energy">    -51.50038735 </i>
    <i name="e_wo_entrp">    -51.50038735 </i>
    <i name="e_0_energy">    -51.50038735 </i>
   </energy>
  </scstep>
  <scstep>
   <time name="total">   11.86   11.95</time>
   <energy>
    <i name="e_fr_energy">    -51.49459999 </i>
    <i name="e_wo_entrp">    -51.49459999 </i>
    <i name="e_0_energy">    -51.49459999 </i>
   </energy>
  </scstep>
  <scstep>
   <time name="total">   12.29   12.40</time>
   <energy>
    <i name="e_fr_energy">    -51.49786020 </i>
    <i name="e_wo_entrp">    -51.49786020 </i>
    <i name="e_0_energy">    -51.49786020 </i>
   </energy>
  </scstep>
  <scstep>
   <time name="total">   11.67   11.76</time>
   <energy>
    <i name="e_fr_energy">    -51.49994261 </i>
    <i name="e_wo_entrp">    -51.49994261 </i>
    <i name="e_0_energy">    -51.49994261 </i>
   </energy>
  </scstep>
  <scstep>
   <time name="total">   12.23   12.34</time>
   <energy>
    <i name="e_fr_energy">    -51.49897629 </i>
    <i name="e_wo_entrp">    -51.49897629 </i>
    <i name="e_0_energy">    -51.49897629 </i>
   </energy>
  </scstep>
  <scstep>
   <time name="total">   12.23   12.34</time>
   <energy>
    <i name="e_fr_energy">    -51.49669996 </i>
    <i name="e_wo_entrp">    -51.49669996 </i>
    <i name="e_0_energy">    -51.49669996 </i>
   </energy>
  </scstep>
  <scstep>
   <time name="total">   12.50   12.60</time>
   <energy>
    <i name="e_fr_energy">    -51.49561430 </i>
    <i name="e_wo_entrp">    -51.49561430 </i>
    <i name="e_0_energy">    -51.49561430 </i>
   </energy>
  </scstep>
  <scstep>
   <time name="total">   12.61   12.71</time>
   <energy>
    <i name="e_fr_energy">    -51.49513987 </i>
    <i name="e_wo_entrp">    -51.49513987 </i>
    <i name="e_0_energy">    -51.49513987 </i>
   </energy>
  </scstep>
  <scstep>
   <time name="total">   12.80   12.90</time>
   <energy>
    <i name="e_fr_energy">    -51.49507576 </i>
    <i name="e_wo_entrp">    -51.49507576 </i>
    <i name="e_0_energy">    -51.49507576 </i>
   </energy>
  </scstep>
  <scstep>
   <time name="total">   12.81   12.92</time>
   <energy>
    <i name="e_fr_energy">    -51.49515209 </i>
    <i name="e_wo_entrp">    -51.49515209 </i>
    <i name="e_0_energy">    -51.49515209 </i>
   </energy>
  </scstep>
  <scstep>
   <time name="total">   12.88   12.98</time>
   <energy>
    <i name="e_fr_energy">    -51.49529990 </i>
    <i name="e_wo_entrp">    -51.49529990 </i>
    <i name="e_0_energy">    -51.49529990 </i>
   </energy>
  </scstep>
  <scstep>
   <time name="total">   12.93   13.04</time>
   <energy>
    <i name="e_fr_energy">    -51.49523662 </i>
    <i name="e_wo_entrp">    -51.49523662 </i>
    <i name="e_0_energy">    -51.49523662 </i>
   </energy>
  </scstep>
  <scstep>
   <time name="total">   13.00   13.11</time>
   <energy>
    <i name="e_fr_energy">    -51.49522507 </i>
    <i name="e_wo_entrp">    -51.49522507 </i>
    <i name="e_0_energy">    -51.49522507 </i>
   </energy>
  </scstep>
  <scstep>
   <time name="total">   12.97   13.07</time>
   <energy>
    <i name="e_fr_energy">    -51.49521829 </i>
    <i name="e_wo_entrp">    -51.49521829 </i>
    <i name="e_0_energy">    -51.49521829 </i>
   </energy>
  </scstep>
  <scstep>
   <time name="total">   12.99   13.10</time>
   <energy>
    <i name="e_fr_energy">    -51.49527575 </i>
    <i name="e_wo_entrp">    -51.49527575 </i>
    <i name="e_0_energy">    -51.49527575 </i>
   </energy>
  </scstep>
  <scstep>
   <time name="total">   13.05   13.16</time>
   <energy>
    <i name="e_fr_energy">    -51.49519761 </i>
    <i name="e_wo_entrp">    -51.49519761 </i>
    <i name="e_0_energy">    -51.49519761 </i>
   </energy>
  </scstep>
  <scstep>
   <time name="total">   13.10   13.21</time>
   <energy>
    <i name="e_fr_energy">    -51.49529593 </i>
    <i name="e_wo_entrp">    -51.49529593 </i>
    <i name="e_0_energy">    -51.49529593 </i>
   </energy>
  </scstep>
  <scstep>
   <time name="total">   13.05   13.16</time>
   <energy>
    <i name="e_fr_energy">    -51.49521858 </i>
    <i name="e_wo_entrp">    -51.49521858 </i>
    <i name="e_0_energy">    -51.49521858 </i>
   </energy>
  </scstep>
  <scstep>
   <time name="total">   13.05   13.16</time>
   <energy>
    <i name="e_fr_energy">    -51.49527932 </i>
    <i name="e_wo_entrp">    -51.49527932 </i>
    <i name="e_0_energy">    -51.49527932 </i>
   </energy>
  </scstep>
  <scstep>
   <time name="total">   13.10   13.21</time>
   <energy>
    <i name="e_fr_energy">    -51.49527972 </i>
    <i name="e_wo_entrp">    -51.49527972 </i>
    <i name="e_0_energy">    -51.49527972 </i>
   </energy>
  </scstep>
  <scstep>
   <time name="total">    8.82    8.89</time>
   <energy>
    <i name="e_fr_energy">    -57.59711649 </i>
    <i name="e_wo_entrp">    -57.59711649 </i>
    <i name="e_0_energy">    -57.59711649 </i>
   </energy>
  </scstep>
  <scstep>
   <time name="total">    9.30    9.38</time>
   <energy>
    <i name="e_fr_energy">    -51.00931132 </i>
    <i name="e_wo_entrp">    -51.00931132 </i>
    <i name="e_0_energy">    -51.00931132 </i>
   </energy>
  </scstep>
  <scstep>
   <time name="total">   10.07   10.15</time>
   <energy>
    <i name="e_fr_energy">    -51.18433791 </i>
    <i name="e_wo_entrp">    -51.18433791 </i>
    <i name="e_0_energy">    -51.18433791 </i>
   </energy>
  </scstep>
  <scstep>
   <time name="total">   10.53   10.61</time>
   <energy>
    <i name="e_fr_energy">    -51.11501481 </i>
    <i name="e_wo_entrp">    -51.11501481 </i>
    <i name="e_0_energy">    -51.11501481 </i>
   </energy>
  </scstep>
  <scstep>
   <time name="total">   11.55   11.64</time>
   <energy>
    <i name="e_fr_energy">    -51.11061038 </i>
    <i name="e_wo_entrp">    -51.11061038 </i>
    <i name="e_0_energy">    -51.11061038 </i>
   </energy>
  </scstep>
  <scstep>
   <time name="total">   11.93   12.03</time>
   <energy>
    <i name="e_fr_energy">    -51.11840400 </i>
    <i name="e_wo_entrp">    -51.11840400 </i>
    <i name="e_0_energy">    -51.11840400 </i>
   </energy>
  </scstep>
  <scstep>
   <time name="total">   12.31   12.41</time>
   <energy>
    <i name="e_fr_energy">    -51.12508242 </i>
    <i name="e_wo_entrp">    -51.12508242 </i>
    <i name="e_0_energy">    -51.12508242 </i>
   </energy>
  </scstep>
  <scstep>
   <time name="total">   11.81   11.91</time>
   <energy>
    <i name="e_fr_energy">    -51.12241446 </i>
    <i name="e_wo_entrp">    -51.12241446 </i>
    <i name="e_0_energy">    -51.12241446 </i>
   </energy>
  </scstep>
  <scstep>
   <time name="total">   12.49   12.59</time>
   <energy>
    <i name="e_fr_energy">    -51.12266140 </i>
    <i name="e_wo_entrp">    -51.12266140 </i>
    <i name="e_0_energy">    -51.12266140 </i>
   </energy>
  </scstep>
  <scstep>
   <time name="total">   12.58   12.69</time>
   <energy>
    <i name="e_fr_energy">    -51.12247385 </i>
    <i name="e_wo_entrp">    -51.12247385 </i>
    <i name="e_0_energy">    -51.12247385 </i>
   </energy>
  </scstep>
  <scstep>
   <time name="total">   12.62   12.73</time>
   <energy>
    <i name="e_fr_energy">    -51.12189125 </i>
    <i name="e_wo_entrp">    -51.12189125 </i>
    <i name="e_0_energy">    -51.12189125 </i>
   </energy>
  </scstep>
  <scstep>
   <time name="total">   12.74   12.84</time>
   <energy>
    <i name="e_fr_energy">    -51.12172261 </i>
    <i name="e_wo_entrp">    -51.12172261 </i>
    <i name="e_0_energy">    -51.12172261 </i>
   </energy>
  </scstep>
  <scstep>
   <time name="total">   12.73   12.83</time>
   <energy>
    <i name="e_fr_energy">    -51.12253366 </i>
    <i name="e_wo_entrp">    -51.12253366 </i>
    <i name="e_0_energy">    -51.12253366 </i>
   </energy>
  </scstep>
  <scstep>
   <time name="total">   12.92   13.02</time>
   <energy>
    <i name="e_fr_energy">    -51.12241930 </i>
    <i name="e_wo_entrp">    -51.12241930 </i>
    <i name="e_0_energy">    -51.12241930 </i>
   </energy>
  </scstep>
  <scstep>
   <time name="total">   12.92   13.02</time>
   <energy>
    <i name="e_fr_energy">    -51.12209519 </i>
    <i name="e_wo_entrp">    -51.12209519 </i>
    <i name="e_0_energy">    -51.12209519 </i>
   </energy>
  </scstep>
  <scstep>
   <time name="total">   13.02   13.13</time>
   <energy>
    <i name="e_fr_energy">    -51.12200117 </i>
    <i name="e_wo_entrp">    -51.12200117 </i>
    <i name="e_0_energy">    -51.12200117 </i>
   </energy>
  </scstep>
  <scstep>
   <time name="total">   12.99   13.10</time>
   <energy>
    <i name="e_fr_energy">    -51.12201652 </i>
    <i name="e_wo_entrp">    -51.12201652 </i>
    <i name="e_0_energy">    -51.12201652 </i>
   </energy>
  </scstep>
  <scstep>
   <time name="total">   13.01   13.12</time>
   <energy>
    <i name="e_fr_energy">    -51.12207352 </i>
    <i name="e_wo_entrp">    -51.12207352 </i>
    <i name="e_0_energy">    -51.12207352 </i>
   </energy>
  </scstep>
  <scstep>
   <time name="total">   13.01   13.12</time>
   <energy>
    <i name="e_fr_energy">    -51.12203978 </i>
    <i name="e_wo_entrp">    -51.12203978 </i>
    <i name="e_0_energy">    -51.12203978 </i>
   </energy>
  </scstep>
  <scstep>
   <time name="total">   13.10   13.21</time>
   <energy>
    <i name="e_fr_energy">    -51.12206580 </i>
    <i name="e_wo_entrp">    -51.12206580 </i>
    <i name="e_0_energy">    -51.12206580 </i>
   </energy>
  </scstep>
  <scstep>
   <time name="total">   13.05   13.15</time>
   <energy>
    <i name="e_fr_energy">    -51.12193984 </i>
    <i name="e_wo_entrp">    -51.12193984 </i>
    <i name="e_0_energy">    -51.12193984 </i>
   </energy>
  </scstep>
  <scstep>
   <time name="total">   13.08   13.19</time>
   <energy>
    <i name="e_fr_energy">    -51.12188877 </i>
    <i name="e_wo_entrp">    -51.12188877 </i>
    <i name="e_0_energy">    -51.12188877 </i>
   </energy>
  </scstep>
  <scstep>
   <time name="total">   13.09   13.20</time>
   <energy>
    <i name="e_fr_energy">    -51.12205820 </i>
    <i name="e_wo_entrp">    -51.12205820 </i>
    <i name="e_0_energy">    -51.12205820 </i>
   </energy>
  </scstep>
  <scstep>
   <time name="total">   13.12   13.23</time>
   <energy>
    <i name="e_fr_energy">    -51.12239656 </i>
    <i name="e_wo_entrp">    -51.12239656 </i>
    <i name="e_0_energy">    -51.12239656 </i>
   </energy>
  </scstep>
  <scstep>
   <time name="total">   13.17   13.28</time>
   <energy>
    <i name="e_fr_energy">    -51.12189808 </i>
    <i name="e_wo_entrp">    -51.12189808 </i>
    <i name="e_0_energy">    -51.12189808 </i>
   </energy>
  </scstep>
  <scstep>
   <time name="total">   13.15   13.26</time>
   <energy>
    <i name="e_fr_energy">    -51.12178255 </i>
    <i name="e_wo_entrp">    -51.12178255 </i>
    <i name="e_0_energy">    -51.12178255 </i>
   </energy>
  </scstep>
  <scstep>
   <time name="total">   13.13   13.24</time>
   <energy>
    <i name="e_fr_energy">    -51.12220801 </i>
    <i name="e_wo_entrp">    -51.12220801 </i>
    <i name="e_0_energy">    -51.12220801 </i>
   </energy>
  </scstep>
  <scstep>
   <time name="total">   13.16   13.27</time>
   <energy>
    <i name="e_fr_energy">    -51.12217255 </i>
    <i name="e_wo_entrp">    -51.12217255 </i>
    <i name="e_0_energy">    -51.12217255 </i>
   </energy>
  </scstep>
  <scstep>
   <time name="total">    8.86    8.93</time>
   <energy>
    <i name="e_fr_energy">    -56.81203161 </i>
    <i name="e_wo_entrp">    -56.81203161 </i>
    <i name="e_0_energy">    -56.81203161 </i>
   </energy>
  </scstep>
  <scstep>
   <time name="total">    9.41    9.49</time>
   <energy>
    <i name="e_fr_energy">    -50.83226262 </i>
    <i name="e_wo_entrp">    -50.83226262 </i>
    <i name="e_0_energy">    -50.83226262 </i>
   </energy>
  </scstep>
  <scstep>
   <time name="total">   10.42   10.51</time>
   <energy>
    <i name="e_fr_energy">    -51.01568125 </i>
    <i name="e_wo_entrp">    -51.01568125 </i>
    <i name="e_0_energy">    -51.01568125 </i>
   </energy>
  </scstep>
  <scstep>
   <time name="total">   10.46   10.55</time>
   <energy>
    <i name="e_fr_energy">    -50.94759842 </i>
    <i name="e_wo_entrp">    -50.94759842 </i>
    <i name="e_0_energy">    -50.94759842 </i>
   </energy>
  </scstep>
  <scstep>
   <time name="total">   11.80   11.90</time>
   <energy>
    <i name="e_fr_energy">    -50.94013733 </i>
    <i name="e_wo_entrp">    -50.94013733 </i>
    <i name="e_0_energy">    -50.94013733 </i>
   </energy>
  </scstep>
  <scstep>
   <time name="total">   12.14   12.24</time>
   <energy>
    <i name="e_fr_energy">    -50.94672947 </i>
    <i name="e_wo_entrp">    -50.94672947 </i>
    <i name="e_0_energy">    -50.94672947 </i>
   </energy>
  </scstep>
  <scstep>
   <time name="total">   12.37   12.48</time>
   <energy>
    <i name="e_fr_energy">    -50.95264228 </i>
    <i name="e_wo_entrp">    -50.95264228 </i>
    <i name="e_0_energy">    -50.95264228 </i>
   </energy>
  </scstep>
  <scstep>
   <time name="total">   11.89   11.98</time>
   <energy>
    <i name="e_fr_energy">    -50.95373000 </i>
    <i name="e_wo_entrp">    -50.95373000 </i>
    <i name="e_0_energy">    -50.95373000 </i>
   </energy>
  </scstep>
  <scstep>
   <time name="total">   12.51   12.62</time>
   <energy>
    <i name="e_fr_energy">    -50.95372331 </i>
    <i name="e_wo_entrp">    -50.95372331 </i>
    <i name="e_0_energy">    -50.95372331 </i>
   </energy>
  </scstep>
  <scstep>
   <time name="total">   12.59   12.69</time>
   <energy>
    <i name="e_fr_energy">    -50.95384216 </i>
    <i name="e_wo_entrp">    -50.95384216 </i>
    <i name="e_0_energy">    -50.95384216 </i>
   </energy>
  </scstep>
  <scstep>
   <time name="total">   12.72   12.82</time>
   <energy>
    <i name="e_fr_energy">    -50.95383245 </i>
    <i name="e_wo_entrp">    -50.95383245 </i>
    <i name="e_0_energy">    -50.95383245 </i>
   </energy>
  </scstep>
  <scstep>
   <time name="total">   12.77   12.87</time>
   <energy>
    <i name="e_fr_energy">    -50.95353192 </i>
    <i name="e_wo_entrp">    -50.95353192 </i>
    <i name="e_0_energy">    -50.95353192 </i>
   </energy>
  </scstep>
  <scstep>
   <time name="total">   12.87   12.98</time>
   <energy>
    <i name="e_fr_energy">    -50.95363871 </i>
    <i name="e_wo_entrp">    -50.95363871 </i>
    <i name="e_0_energy">    -50.95363871 </i>
   </energy>
  </scstep>
  <scstep>
   <time name="total">   12.94   13.05</time>
   <energy>
    <i name="e_fr_energy">    -50.95368867 </i>
    <i name="e_wo_entrp">    -50.95368867 </i>
    <i name="e_0_energy">    -50.95368867 </i>
   </energy>
  </scstep>
  <scstep>
   <time name="total">   12.98   13.09</time>
   <energy>
    <i name="e_fr_energy">    -50.95363498 </i>
    <i name="e_wo_entrp">    -50.95363498 </i>
    <i name="e_0_energy">    -50.95363498 </i>
   </energy>
  </scstep>
  <scstep>
   <time name="total">   13.00   13.10</time>
   <energy>
    <i name="e_fr_energy">    -50.95361543 </i>
    <i name="e_wo_entrp">    -50.95361543 </i>
    <i name="e_0_energy">    -50.95361543 </i>
   </energy>
  </scstep>
  <scstep>
   <time name="total">   13.10   13.21</time>
   <energy>
    <i name="e_fr_energy">    -50.95368497 </i>
    <i name="e_wo_entrp">    -50.95368497 </i>
    <i name="e_0_energy">    -50.95368497 </i>
   </energy>
  </scstep>
  <scstep>
   <time name="total">   13.03   13.14</time>
   <energy>
    <i name="e_fr_energy">    -50.95370854 </i>
    <i name="e_wo_entrp">    -50.95370854 </i>
    <i name="e_0_energy">    -50.95370854 </i>
   </energy>
  </scstep>
  <scstep>
   <time name="total">   13.06   13.17</time>
   <energy>
    <i name="e_fr_energy">    -50.95376900 </i>
    <i name="e_wo_entrp">    -50.95376900 </i>
    <i name="e_0_energy">    -50.95376900 </i>
   </energy>
  </scstep>
  <scstep>
   <time name="total">   13.13   13.24</time>
   <energy>
    <i name="e_fr_energy">    -50.95367398 </i>
    <i name="e_wo_entrp">    -50.95367398 </i>
    <i name="e_0_energy">    -50.95367398 </i>
   </energy>
  </scstep>
  <scstep>
   <time name="total">   13.11   13.22</time>
   <energy>
    <i name="e_fr_energy">    -50.95369723 </i>
    <i name="e_wo_entrp">    -50.95369723 </i>
    <i name="e_0_energy">    -50.95369723 </i>
   </energy>
  </scstep>
  <scstep>
   <time name="total">   13.09   13.19</time>
   <energy>
    <i name="e_fr_energy">    -50.95371430 </i>
    <i name="e_wo_entrp">    -50.95371430 </i>
    <i name="e_0_energy">    -50.95371430 </i>
   </energy>
  </scstep>
  <scstep>
   <time name="total">    8.65    8.72</time>
   <energy>
    <i name="e_fr_energy">    -57.18037386 </i>
    <i name="e_wo_entrp">    -57.18037386 </i>
    <i name="e_0_energy">    -57.18037386 </i>
   </energy>
  </scstep>
  <scstep>
   <time name="total">    9.35    9.43</time>
   <energy>
    <i name="e_fr_energy">    -50.61681353 </i>
    <i name="e_wo_entrp">    -50.61681353 </i>
    <i name="e_0_energy">    -50.61681353 </i>
   </energy>
  </scstep>
  <scstep>
   <time name="total">    9.92   10.00</time>
   <energy>
    <i name="e_fr_energy">    -51.07302047 </i>
    <i name="e_wo_entrp">    -51.07302047 </i>
    <i name="e_0_energy">    -51.07302047 </i>
   </energy>
  </scstep>
  <scstep>
   <time name="total">   10.07   10.15</time>
   <energy>
    <i name="e_fr_energy">    -51.46563246 </i>
    <i name="e_wo_entrp">    -51.46563246 </i>
    <i name="e_0_energy">    -51.46563246 </i>
   </energy>
  </scstep>
  <scstep>
   <time name="total">   11.49   11.59</time>
   <energy>
    <i name="e_fr_energy">    -51.53601062 </i>
    <i name="e_wo_entrp">    -51.53601062 </i>
    <i name="e_0_energy">    -51.53601062 </i>
   </energy>
  </scstep>
  <scstep>
   <time name="total">   11.22   11.31</time>
   <energy>
    <i name="e_fr_energy">    -51.51880682 </i>
    <i name="e_wo_entrp">    -51.51880682 </i>
    <i name="e_0_energy">    -51.51880682 </i>
   </energy>
  </scstep>
  <scstep>
   <time name="total">   11.89   11.99</time>
   <energy>
    <i name="e_fr_energy">    -51.50067889 </i>
    <i name="e_wo_entrp">    -51.50067889 </i>
    <i name="e_0_energy">    -51.50067889 </i>
   </energy>
  </scstep>
  <scstep>
   <time name="total">   11.84   11.93</time>
   <energy>
    <i name="e_fr_energy">    -51.49461177 </i>
    <i name="e_wo_entrp">    -51.49461177 </i>
    <i name="e_0_energy">    -51.49461177 </i>
   </energy>
  </scstep>
  <scstep>
   <time name="total">   12.29   12.38</time>
   <energy>
    <i name="e_fr_energy">    -51.49785539 </i>
    <i name="e_wo_entrp">    -51.49785539 </i>
    <i name="e_0_energy">    -51.49785539 </i>
   </energy>
  </scstep>
  <scstep>
   <time name="total">   11.64   11.74</time>
   <energy>
    <i name="e_fr_energy">    -51.49992549 </i>
    <i name="e_wo_entrp">    -51.49992549 </i>
    <i name="e_0_energy">    -51.49992549 </i>
   </energy>
  </scstep>
  <scstep>
   <time name="total">   12.23   12.33</time>
   <energy>
    <i name="e_fr_energy">    -51.49899616 </i>
    <i name="e_wo_entrp">    -51.49899616 </i>
    <i name="e_0_energy">    -51.49899616 </i>
   </energy>
  </scstep>
  <scstep>
   <time name="total">   12.24   12.35</time>
   <energy>
    <i name="e_fr_energy">    -51.49672169 </i>
    <i name="e_wo_entrp">    -51.49672169 </i>
    <i name="e_0_energy">    -51.49672169 </i>
   </energy>
  </scstep>
  <scstep>
   <time name="total">   12.46   12.57</time>
   <energy>
    <i name="e_fr_energy">    -51.49564943 </i>
    <i name="e_wo_entrp">    -51.49564943 </i>
    <i name="e_0_energy">    -51.49564943 </i>
   </energy>
  </scstep>
  <scstep>
   <time name="total">   12.54   12.65</time>
   <energy>
    <i name="e_fr_energy">    -51.49518043 </i>
    <i name="e_wo_entrp">    -51.49518043 </i>
    <i name="e_0_energy">    -51.49518043 </i>
   </energy>
  </scstep>
  <scstep>
   <time name="total">   12.72   12.82</time>
   <energy>
    <i name="e_fr_energy">    -51.49508070 </i>
    <i name="e_wo_entrp">    -51.49508070 </i>
    <i name="e_0_energy">    -51.49508070 </i>
   </energy>
  </scstep>
  <scstep>
   <time name="total">   12.84   12.95</time>
   <energy>
    <i name="e_fr_energy">    -51.49520742 </i>
    <i name="e_wo_entrp">    -51.49520742 </i>
    <i name="e_0_energy">    -51.49520742 </i>
   </energy>
  </scstep>
  <scstep>
   <time name="total">   12.84   12.95</time>
   <energy>
    <i name="e_fr_energy">    -51.49530563 </i>
    <i name="e_wo_entrp">    -51.49530563 </i>
    <i name="e_0_energy">    -51.49530563 </i>
   </energy>
  </scstep>
  <scstep>
   <time name="total">   12.88   12.99</time>
   <energy>
    <i name="e_fr_energy">    -51.49532951 </i>
    <i name="e_wo_entrp">    -51.49532951 </i>
    <i name="e_0_energy">    -51.49532951 </i>
   </energy>
  </scstep>
  <scstep>
   <time name="total">   12.92   13.02</time>
   <energy>
    <i name="e_fr_energy">    -51.49520063 </i>
    <i name="e_wo_entrp">    -51.49520063 </i>
    <i name="e_0_energy">    -51.49520063 </i>
   </energy>
  </scstep>
  <scstep>
   <time name="total">   12.96   13.07</time>
   <energy>
    <i name="e_fr_energy">    -51.49529565 </i>
    <i name="e_wo_entrp">    -51.49529565 </i>
    <i name="e_0_energy">    -51.49529565 </i>
   </energy>
  </scstep>
  <scstep>
   <time name="total">   13.05   13.16</time>
   <energy>
    <i name="e_fr_energy">    -51.49524638 </i>
    <i name="e_wo_entrp">    -51.49524638 </i>
    <i name="e_0_energy">    -51.49524638 </i>
   </energy>
  </scstep>
  <scstep>
   <time name="total">   13.03   13.14</time>
   <energy>
    <i name="e_fr_energy">    -51.49528831 </i>
    <i name="e_wo_entrp">    -51.49528831 </i>
    <i name="e_0_energy">    -51.49528831 </i>
   </energy>
  </scstep>
  <scstep>
   <time name="total">   13.03   13.14</time>
   <energy>
    <i name="e_fr_energy">    -51.49526757 </i>
    <i name="e_wo_entrp">    -51.49526757 </i>
    <i name="e_0_energy">    -51.49526757 </i>
   </energy>
  </scstep>
  <scstep>
   <time name="total">   13.04   13.15</time>
   <energy>
    <i name="e_fr_energy">    -51.49525202 </i>
    <i name="e_wo_entrp">    -51.49525202 </i>
    <i name="e_0_energy">    -51.49525202 </i>
   </energy>
  </scstep>
  <scstep>
   <time name="total">   13.07   13.17</time>
   <energy>
    <i name="e_fr_energy">    -51.49530076 </i>
    <i name="e_wo_entrp">    -51.49530076 </i>
    <i name="e_0_energy">    -51.49530076 </i>
   </energy>
  </scstep>
  <scstep>
   <time name="total">   13.12   13.23</time>
   <energy>
    <i name="e_fr_energy">    -51.49530790 </i>
    <i name="e_wo_entrp">    -51.49530790 </i>
    <i name="e_0_energy">    -51.49530790 </i>
   </energy>
  </scstep>
  <scstep>
   <time name="total">    8.81    8.88</time>
   <energy>
    <i name="e_fr_energy">    -57.59711639 </i>
    <i name="e_wo_entrp">    -57.59711639 </i>
    <i name="e_0_energy">    -57.59711639 </i>
   </energy>
  </scstep>
  <scstep>
   <time name="total">    9.28    9.36</time>
   <energy>
    <i name="e_fr_energy">    -51.00920181 </i>
    <i name="e_wo_entrp">    -51.00920181 </i>
    <i name="e_0_energy">    -51.00920181 </i>
   </energy>
  </scstep>
  <scstep>
   <time name="total">   10.07   10.16</time>
   <energy>
    <i name="e_fr_energy">    -51.18382864 </i>
    <i name="e_wo_entrp">    -51.18382864 </i>
    <i name="e_0_energy">    -51.18382864 </i>
   </energy>
  </scstep>
  <scstep>
   <time name="total">   10.55   10.64</time>
   <energy>
    <i name="e_fr_energy">    -51.11457143 </i>
    <i name="e_wo_entrp">    -51.11457143 </i>
    <i name="e_0_energy">    -51.11457143 </i>
   </energy>
  </scstep>
  <scstep>
   <time name="total">   11.51   11.61</time>
   <energy>
    <i name="e_fr_energy">    -51.11024290 </i>
    <i name="e_wo_entrp">    -51.11024290 </i>
    <i name="e_0_energy">    -51.11024290 </i>
   </energy>
  </scstep>
  <scstep>
   <time name="total">   11.90   12.00</time>
   <energy>
    <i name="e_fr_energy">    -51.11822001 </i>
    <i name="e_wo_entrp">    -51.11822001 </i>
    <i name="e_0_energy">    -51.11822001 </i>
   </energy>
  </scstep>
  <scstep>
   <time name="total">   12.28   12.38</time>
   <energy>
    <i name="e_fr_energy">    -51.12497630 </i>
    <i name="e_wo_entrp">    -51.12497630 </i>
    <i name="e_0_energy">    -51.12497630 </i>
   </energy>
  </scstep>
  <scstep>
   <time name="total">   11.77   11.87</time>
   <energy>
    <i name="e_fr_energy">    -51.12235147 </i>
    <i name="e_wo_entrp">    -51.12235147 </i>
    <i name="e_0_energy">    -51.12235147 </i>
   </energy>
  </scstep>
  <scstep>
   <time name="total">   12.51   12.61</time>
   <energy>
    <i name="e_fr_energy">    -51.12274691 </i>
    <i name="e_wo_entrp">    -51.12274691 </i>
    <i name="e_0_energy">    -51.12274691 </i>
   </energy>
  </scstep>
  <scstep>
   <time name="total">   12.56   12.66</time>
   <energy>
    <i name="e_fr_energy">    -51.12240365 </i>
    <i name="e_wo_entrp">    -51.12240365 </i>
    <i name="e_0_energy">    -51.12240365 </i>
   </energy>
  </scstep>
  <scstep>
   <time name="total">   12.65   12.75</time>
   <energy>
    <i name="e_fr_energy">    -51.12193540 </i>
    <i name="e_wo_entrp">    -51.12193540 </i>
    <i name="e_0_energy">    -51.12193540 </i>
   </energy>
  </scstep>
  <scstep>
   <time name="total">   12.79   12.89</time>
   <energy>
    <i name="e_fr_energy">    -51.12163658 </i>
    <i name="e_wo_entrp">    -51.12163658 </i>
    <i name="e_0_energy">    -51.12163658 </i>
   </energy>
  </scstep>
  <scstep>
   <time name="total">   12.79   12.90</time>
   <energy>
    <i name="e_fr_energy">    -51.12248117 </i>
    <i name="e_wo_entrp">    -51.12248117 </i>
    <i name="e_0_energy">    -51.12248117 </i>
   </energy>
  </scstep>
  <scstep>
   <time name="total">   12.99   13.10</time>
   <energy>
    <i name="e_fr_energy">    -51.12238002 </i>
    <i name="e_wo_entrp">    -51.12238002 </i>
    <i name="e_0_energy">    -51.12238002 </i>
   </energy>
  </scstep>
  <scstep>
   <time name="total">   12.94   13.04</time>
   <energy>
    <i name="e_fr_energy">    -51.12199501 </i>
    <i name="e_wo_entrp">    -51.12199501 </i>
    <i name="e_0_energy">    -51.12199501 </i>
   </energy>
  </scstep>
  <scstep>
   <time name="total">   12.96   13.06</time>
   <energy>
    <i name="e_fr_energy">    -51.12200225 </i>
    <i name="e_wo_entrp">    -51.12200225 </i>
    <i name="e_0_energy">    -51.12200225 </i>
   </energy>
  </scstep>
  <scstep>
   <time name="total">   12.94   13.05</time>
   <energy>
    <i name="e_fr_energy">    -51.12205860 </i>
    <i name="e_wo_entrp">    -51.12205860 </i>
    <i name="e_0_energy">    -51.12205860 </i>
   </energy>
  </scstep>
  <scstep>
   <time name="total">   13.07   13.18</time>
   <energy>
    <i name="e_fr_energy">    -51.12199604 </i>
    <i name="e_wo_entrp">    -51.12199604 </i>
    <i name="e_0_energy">    -51.12199604 </i>
   </energy>
  </scstep>
  <scstep>
   <time name="total">   13.00   13.11</time>
   <energy>
    <i name="e_fr_energy">    -51.12205332 </i>
    <i name="e_wo_entrp">    -51.12205332 </i>
    <i name="e_0_energy">    -51.12205332 </i>
   </energy>
  </scstep>
  <scstep>
   <time name="total">   13.04   13.15</time>
   <energy>
    <i name="e_fr_energy">    -51.12210266 </i>
    <i name="e_wo_entrp">    -51.12210266 </i>
    <i name="e_0_energy">    -51.12210266 </i>
   </energy>
  </scstep>
  <scstep>
   <time name="total">   13.04   13.14</time>
   <energy>
    <i name="e_fr_energy">    -51.12201511 </i>
    <i name="e_wo_entrp">    -51.12201511 </i>
    <i name="e_0_energy">    -51.12201511 </i>
   </energy>
  </scstep>
  <scstep>
   <time name="total">   13.09   13.20</time>
   <energy>
    <i name="e_fr_energy">    -51.12192256 </i>
    <i name="e_wo_entrp">    -51.12192256 </i>
    <i name="e_0_energy">    -51.12192256 </i>
   </energy>
  </scstep>
  <scstep>
   <time name="total">   13.16   13.27</time>
   <energy>
    <i name="e_fr_energy">    -51.12204613 </i>
    <i name="e_wo_entrp">    -51.12204613 </i>
    <i name="e_0_energy">    -51.12204613 </i>
   </energy>
  </scstep>
  <scstep>
   <time name="total">   13.09   13.20</time>
   <energy>
    <i name="e_fr_energy">    -51.12243315 </i>
    <i name="e_wo_entrp">    -51.12243315 </i>
    <i name="e_0_energy">    -51.12243315 </i>
   </energy>
  </scstep>
  <scstep>
   <time name="total">   13.12   13.23</time>
   <energy>
    <i name="e_fr_energy">    -51.12188029 </i>
    <i name="e_wo_entrp">    -51.12188029 </i>
    <i name="e_0_energy">    -51.12188029 </i>
   </energy>
  </scstep>
  <scstep>
   <time name="total">   13.12   13.23</time>
   <energy>
    <i name="e_fr_energy">    -51.12184567 </i>
    <i name="e_wo_entrp">    -51.12184567 </i>
    <i name="e_0_energy">    -51.12184567 </i>
   </energy>
  </scstep>
  <scstep>
   <time name="total">   13.26   13.37</time>
   <energy>
    <i name="e_fr_energy">    -51.12224112 </i>
    <i name="e_wo_entrp">    -51.12224112 </i>
    <i name="e_0_energy">    -51.12224112 </i>
   </energy>
  </scstep>
  <scstep>
   <time name="total">   13.15   13.26</time>
   <energy>
    <i name="e_fr_energy">    -51.12222065 </i>
    <i name="e_wo_entrp">    -51.12222065 </i>
    <i name="e_0_energy">    -51.12222065 </i>
   </energy>
  </scstep>
  <scstep>
   <time name="total">    8.85    8.92</time>
   <energy>
    <i name="e_fr_energy">    -56.81203036 </i>
    <i name="e_wo_entrp">    -56.81203036 </i>
    <i name="e_0_energy">    -56.81203036 </i>
   </energy>
  </scstep>
  <scstep>
   <time name="total">    9.40    9.47</time>
   <energy>
    <i name="e_fr_energy">    -50.83252287 </i>
    <i name="e_wo_entrp">    -50.83252287 </i>
    <i name="e_0_energy">    -50.83252287 </i>
   </energy>
  </scstep>
  <scstep>
   <time name="total">   10.56   10.65</time>
   <energy>
    <i name="e_fr_energy">    -51.01564346 </i>
    <i name="e_wo_entrp">    -51.01564346 </i>
    <i name="e_0_energy">    -51.01564346 </i>
   </energy>
  </scstep>
  <scstep>
   <time name="total">   10.49   10.58</time>
   <energy>
    <i name="e_fr_energy">    -50.94763987 </i>
    <i name="e_wo_entrp">    -50.94763987 </i>
    <i name="e_0_energy">    -50.94763987 </i>
   </energy>
  </scstep>
  <scstep>
   <time name="total">   11.82   11.92</time>
   <energy>
    <i name="e_fr_energy">    -50.94004408 </i>
    <i name="e_wo_entrp">    -50.94004408 </i>
    <i name="e_0_energy">    -50.94004408 </i>
   </energy>
  </scstep>
  <scstep>
   <time name="total">   12.09   12.19</time>
   <energy>
    <i name="e_fr_energy">    -50.94668814 </i>
    <i name="e_wo_entrp">    -50.94668814 </i>
    <i name="e_0_energy">    -50.94668814 </i>
   </energy>
  </scstep>
  <scstep>
   <time name="total">   12.39   12.49</time>
   <energy>
    <i name="e_fr_energy">    -50.95267166 </i>
    <i name="e_wo_entrp">    -50.95267166 </i>
    <i name="e_0_energy">    -50.95267166 </i>
   </energy>
  </scstep>
  <scstep>
   <time name="total">   11.92   12.02</time>
   <energy>
    <i name="e_fr_energy">    -50.95373310 </i>
    <i name="e_wo_entrp">    -50.95373310 </i>
    <i name="e_0_energy">    -50.95373310 </i>
   </energy>
  </scstep>
  <scstep>
   <time name="total">   12.53   12.64</time>
   <energy>
    <i name="e_fr_energy">    -50.95373639 </i>
    <i name="e_wo_entrp">    -50.95373639 </i>
    <i name="e_0_energy">    -50.95373639 </i>
   </energy>
  </scstep>
  <scstep>
   <time name="total">   12.59   12.70</time>
   <energy>
    <i name="e_fr_energy">    -50.95385109 </i>
    <i name="e_wo_entrp">    -50.95385109 </i>
    <i name="e_0_energy">    -50.95385109 </i>
   </energy>
  </scstep>
  <scstep>
   <time name="total">   12.75   12.86</time>
   <energy>
    <i name="e_fr_energy">    -50.95384527 </i>
    <i name="e_wo_entrp">    -50.95384527 </i>
    <i name="e_0_energy">    -50.95384527 </i>
   </energy>
  </scstep>
  <scstep>
   <time name="total">   12.78   12.88</time>
   <energy>
    <i name="e_fr_energy">    -50.95355878 </i>
    <i name="e_wo_entrp">    -50.95355878 </i>
    <i name="e_0_energy">    -50.95355878 </i>
   </energy>
  </scstep>
  <scstep>
   <time name="total">   12.88   12.99</time>
   <energy>
    <i name="e_fr_energy">    -50.95365892 </i>
    <i name="e_wo_entrp">    -50.95365892 </i>
    <i name="e_0_energy">    -50.95365892 </i>
   </energy>
  </scstep>
  <scstep>
   <time name="total">   12.95   13.06</time>
   <energy>
    <i name="e_fr_energy">    -50.95368041 </i>
    <i name="e_wo_entrp">    -50.95368041 </i>
    <i name="e_0_energy">    -50.95368041 </i>
   </energy>
  </scstep>
  <scstep>
   <time name="total">   12.99   13.10</time>
   <energy>
    <i name="e_fr_energy">    -50.95366935 </i>
    <i name="e_wo_entrp">    -50.95366935 </i>
    <i name="e_0_energy">    -50.95366935 </i>
   </energy>
  </scstep>
  <scstep>
   <time name="total">   13.01   13.12</time>
   <energy>
    <i name="e_fr_energy">    -50.95360971 </i>
    <i name="e_wo_entrp">    -50.95360971 </i>
    <i name="e_0_energy">    -50.95360971 </i>
   </energy>
  </scstep>
  <scstep>
   <time name="total">   13.02   13.13</time>
   <energy>
    <i name="e_fr_energy">    -50.95371260 </i>
    <i name="e_wo_entrp">    -50.95371260 </i>
    <i name="e_0_energy">    -50.95371260 </i>
   </energy>
  </scstep>
  <scstep>
   <time name="total">   13.08   13.19</time>
   <energy>
    <i name="e_fr_energy">    -50.95363436 </i>
    <i name="e_wo_entrp">    -50.95363436 </i>
    <i name="e_0_energy">    -50.95363436 </i>
   </energy>
  </scstep>
  <scstep>
   <time name="total">   13.01   13.11</time>
   <energy>
    <i name="e_fr_energy">    -50.95377623 </i>
    <i name="e_wo_entrp">    -50.95377623 </i>
    <i name="e_0_energy">    -50.95377623 </i>
   </energy>
  </scstep>
  <scstep>
   <time name="total">   13.05   13.15</time>
   <energy>
    <i name="e_fr_energy">    -50.95367403 </i>
    <i name="e_wo_entrp">    -50.95367403 </i>
    <i name="e_0_energy">    -50.95367403 </i>
   </energy>
  </scstep>
  <scstep>
   <time name="total">   13.08   13.19</time>
   <energy>
    <i name="e_fr_energy">    -50.95373446 </i>
    <i name="e_wo_entrp">    -50.95373446 </i>
    <i name="e_0_energy">    -50.95373446 </i>
   </energy>
  </scstep>
  <scstep>
   <time name="total">   13.15   13.26</time>
   <energy>
    <i name="e_fr_energy">    -50.95369529 </i>
    <i name="e_wo_entrp">    -50.95369529 </i>
    <i name="e_0_energy">    -50.95369529 </i>
   </energy>
  </scstep>
  <scstep>
   <time name="total">   13.09   13.20</time>
   <energy>
    <i name="e_fr_energy">    -50.95377848 </i>
    <i name="e_wo_entrp">    -50.95377848 </i>
    <i name="e_0_energy">    -50.95377848 </i>
   </energy>
  </scstep>
  <scstep>
   <time name="total">   13.15   13.26</time>
   <energy>
    <i name="e_fr_energy">    -50.95363138 </i>
    <i name="e_wo_entrp">    -50.95363138 </i>
    <i name="e_0_energy">    -50.95363138 </i>
   </energy>
  </scstep>
  <scstep>
   <time name="total">   13.15   13.26</time>
   <energy>
    <i name="e_fr_energy">    -50.95372091 </i>
    <i name="e_wo_entrp">    -50.95372091 </i>
    <i name="e_0_energy">    -50.95372091 </i>
   </energy>
  </scstep>
  <scstep>
   <time name="total">    8.56    8.63</time>
   <energy>
    <i name="e_fr_energy">    -57.18037258 </i>
    <i name="e_wo_entrp">    -57.18037258 </i>
    <i name="e_0_energy">    -57.18037258 </i>
   </energy>
  </scstep>
  <scstep>
   <time name="total">    9.36    9.43</time>
   <energy>
    <i name="e_fr_energy">    -50.61765719 </i>
    <i name="e_wo_entrp">    -50.61765719 </i>
    <i name="e_0_energy">    -50.61765719 </i>
   </energy>
  </scstep>
  <scstep>
   <time name="total">   10.05   10.15</time>
   <energy>
    <i name="e_fr_energy">    -51.07268136 </i>
    <i name="e_wo_entrp">    -51.07268136 </i>
    <i name="e_0_energy">    -51.07268136 </i>
   </energy>
  </scstep>
  <scstep>
   <time name="total">   10.01   10.09</time>
   <energy>
    <i name="e_fr_energy">    -51.46551008 </i>
    <i name="e_wo_entrp">    -51.46551008 </i>
    <i name="e_0_energy">    -51.46551008 </i>
   </energy>
  </scstep>
  <scstep>
   <time name="total">   11.52   11.61</time>
   <energy>
    <i name="e_fr_energy">    -51.53581049 </i>
    <i name="e_wo_entrp">    -51.53581049 </i>
    <i name="e_0_energy">    -51.53581049 </i>
   </energy>
  </scstep>
  <scstep>
   <time name="total">   11.25   11.34</time>
   <energy>
    <i name="e_fr_energy">    -51.51870822 </i>
    <i name="e_wo_entrp">    -51.51870822 </i>
    <i name="e_0_energy">    -51.51870822 </i>
   </energy>
  </scstep>
  <scstep>
   <time name="total">   11.91   12.01</time>
   <energy>
    <i name="e_fr_energy">    -51.50058946 </i>
    <i name="e_wo_entrp">    -51.50058946 </i>
    <i name="e_0_energy">    -51.50058946 </i>
   </energy>
  </scstep>
  <scstep>
   <time name="total">   11.84   11.94</time>
   <energy>
    <i name="e_fr_energy">    -51.49458699 </i>
    <i name="e_wo_entrp">    -51.49458699 </i>
    <i name="e_0_energy">    -51.49458699 </i>
   </energy>
  </scstep>
  <scstep>
   <time name="total">   12.30   12.41</time>
   <energy>
    <i name="e_fr_energy">    -51.49783685 </i>
    <i name="e_wo_entrp">    -51.49783685 </i>
    <i name="e_0_energy">    -51.49783685 </i>
   </energy>
  </scstep>
  <scstep>
   <time name="total">   11.63   11.72</time>
   <energy>
    <i name="e_fr_energy">    -51.49991655 </i>
    <i name="e_wo_entrp">    -51.49991655 </i>
    <i name="e_0_energy">    -51.49991655 </i>
   </energy>
  </scstep>
  <scstep>
   <time name="total">   12.24   12.34</time>
   <energy>
    <i name="e_fr_energy">    -51.49899798 </i>
    <i name="e_wo_entrp">    -51.49899798 </i>
    <i name="e_0_energy">    -51.49899798 </i>
   </energy>
  </scstep>
  <scstep>
   <time name="total">   12.26   12.36</time>
   <energy>
    <i name="e_fr_energy">    -51.49672241 </i>
    <i name="e_wo_entrp">    -51.49672241 </i>
    <i name="e_0_energy">    -51.49672241 </i>
   </energy>
  </scstep>
  <scstep>
   <time name="total">   12.51   12.61</time>
   <energy>
    <i name="e_fr_energy">    -51.49562693 </i>
    <i name="e_wo_entrp">    -51.49562693 </i>
    <i name="e_0_energy">    -51.49562693 </i>
   </energy>
  </scstep>
  <scstep>
   <time name="total">   12.61   12.71</time>
   <energy>
    <i name="e_fr_energy">    -51.49517257 </i>
    <i name="e_wo_entrp">    -51.49517257 </i>
    <i name="e_0_energy">    -51.49517257 </i>
   </energy>
  </scstep>
  <scstep>
   <time name="total">   12.79   12.90</time>
   <energy>
    <i name="e_fr_energy">    -51.49505980 </i>
    <i name="e_wo_entrp">    -51.49505980 </i>
    <i name="e_0_energy">    -51.49505980 </i>
   </energy>
  </scstep>
  <scstep>
   <time name="total">   12.86   12.97</time>
   <energy>
    <i name="e_fr_energy">    -51.49516947 </i>
    <i name="e_wo_entrp">    -51.49516947 </i>
    <i name="e_0_energy">    -51.49516947 </i>
   </energy>
  </scstep>
  <scstep>
   <time name="total">   12.92   13.03</time>
   <energy>
    <i name="e_fr_energy">    -51.49529578 </i>
    <i name="e_wo_entrp">    -51.49529578 </i>
    <i name="e_0_energy">    -51.49529578 </i>
   </energy>
  </scstep>
  <scstep>
   <time name="total">   12.97   13.08</time>
   <energy>
    <i name="e_fr_energy">    -51.49525163 </i>
    <i name="e_wo_entrp">    -51.49525163 </i>
    <i name="e_0_energy">    -51.49525163 </i>
   </energy>
  </scstep>
  <scstep>
   <time name="total">   13.01   13.12</time>
   <energy>
    <i name="e_fr_energy">    -51.49522333 </i>
    <i name="e_wo_entrp">    -51.49522333 </i>
    <i name="e_0_energy">    -51.49522333 </i>
   </energy>
  </scstep>
  <scstep>
   <time name="total">   12.99   13.10</time>
   <energy>
    <i name="e_fr_energy">    -51.49521252 </i>
    <i name="e_wo_entrp">    -51.49521252 </i>
    <i name="e_0_energy">    -51.49521252 </i>
   </energy>
  </scstep>
  <scstep>
   <time name="total">   13.08   13.19</time>
   <energy>
    <i name="e_fr_energy">    -51.49526013 </i>
    <i name="e_wo_entrp">    -51.49526013 </i>
    <i name="e_0_energy">    -51.49526013 </i>
   </energy>
  </scstep>
  <scstep>
   <time name="total">   13.04   13.15</time>
   <energy>
    <i name="e_fr_energy">    -51.49527007 </i>
    <i name="e_wo_entrp">    -51.49527007 </i>
    <i name="e_0_energy">    -51.49527007 </i>
   </energy>
  </scstep>
  <scstep>
   <time name="total">   13.04   20.47</time>
   <energy>
    <i name="e_fr_energy">    -51.49522297 </i>
    <i name="e_wo_entrp">    -51.49522297 </i>
    <i name="e_0_energy">    -51.49522297 </i>
   </energy>
  </scstep>
  <scstep>
   <time name="total">   13.08   13.19</time>
   <energy>
    <i name="e_fr_energy">    -51.49524298 </i>
    <i name="e_wo_entrp">    -51.49524298 </i>
    <i name="e_0_energy">    -51.49524298 </i>
   </energy>
  </scstep>
  <scstep>
   <time name="total">    8.81    8.88</time>
   <energy>
    <i name="e_fr_energy">    -57.62965072 </i>
    <i name="e_wo_entrp">    -57.62965072 </i>
    <i name="e_0_energy">    -57.62965072 </i>
   </energy>
  </scstep>
  <scstep>
   <time name="total">    9.27    9.34</time>
   <energy>
    <i name="e_fr_energy">    -51.01001578 </i>
    <i name="e_wo_entrp">    -51.01001578 </i>
    <i name="e_0_energy">    -51.01001578 </i>
   </energy>
  </scstep>
  <scstep>
   <time name="total">   10.08   10.17</time>
   <energy>
    <i name="e_fr_energy">    -51.18159971 </i>
    <i name="e_wo_entrp">    -51.18159971 </i>
    <i name="e_0_energy">    -51.18159971 </i>
   </energy>
  </scstep>
  <scstep>
   <time name="total">   10.55   10.64</time>
   <energy>
    <i name="e_fr_energy">    -51.11402663 </i>
    <i name="e_wo_entrp">    -51.11402663 </i>
    <i name="e_0_energy">    -51.11402663 </i>
   </energy>
  </scstep>
  <scstep>
   <time name="total">   11.54   11.64</time>
   <energy>
    <i name="e_fr_energy">    -51.10959779 </i>
    <i name="e_wo_entrp">    -51.10959779 </i>
    <i name="e_0_energy">    -51.10959779 </i>
   </energy>
  </scstep>
  <scstep>
   <time name="total">   11.91   12.01</time>
   <energy>
    <i name="e_fr_energy">    -51.11769042 </i>
    <i name="e_wo_entrp">    -51.11769042 </i>
    <i name="e_0_energy">    -51.11769042 </i>
   </energy>
  </scstep>
  <scstep>
   <time name="total">   12.31   12.41</time>
   <energy>
    <i name="e_fr_energy">    -51.12465366 </i>
    <i name="e_wo_entrp">    -51.12465366 </i>
    <i name="e_0_energy">    -51.12465366 </i>
   </energy>
  </scstep>
  <scstep>
   <time name="total">   11.82   11.92</time>
   <energy>
    <i name="e_fr_energy">    -51.12216689 </i>
    <i name="e_wo_entrp">    -51.12216689 </i>
    <i name="e_0_energy">    -51.12216689 </i>
   </energy>
  </scstep>
  <scstep>
   <time name="total">   12.48   12.59</time>
   <energy>
    <i name="e_fr_energy">    -51.12267859 </i>
    <i name="e_wo_entrp">    -51.12267859 </i>
    <i name="e_0_energy">    -51.12267859 </i>
   </energy>
  </scstep>
  <scstep>
   <time name="total">   12.65   12.76</time>
   <energy>
    <i name="e_fr_energy">    -51.12234095 </i>
    <i name="e_wo_entrp">    -51.12234095 </i>
    <i name="e_0_energy">    -51.12234095 </i>
   </energy>
  </scstep>
  <scstep>
   <time name="total">   12.67   12.78</time>
   <energy>
    <i name="e_fr_energy">    -51.12179589 </i>
    <i name="e_wo_entrp">    -51.12179589 </i>
    <i name="e_0_energy">    -51.12179589 </i>
   </energy>
  </scstep>
  <scstep>
   <time name="total">   12.78   12.89</time>
   <energy>
    <i name="e_fr_energy">    -51.12161912 </i>
    <i name="e_wo_entrp">    -51.12161912 </i>
    <i name="e_0_energy">    -51.12161912 </i>
   </energy>
  </scstep>
  <scstep>
   <time name="total">   12.78   12.88</time>
   <energy>
    <i name="e_fr_energy">    -51.12246714 </i>
    <i name="e_wo_entrp">    -51.12246714 </i>
    <i name="e_0_energy">    -51.12246714 </i>
   </energy>
  </scstep>
  <scstep>
   <time name="total">   12.96   13.07</time>
   <energy>
    <i name="e_fr_energy">    -51.12222946 </i>
    <i name="e_wo_entrp">    -51.12222946 </i>
    <i name="e_0_energy">    -51.12222946 </i>
   </energy>
  </scstep>
  <scstep>
   <time name="total">   12.97   13.08</time>
   <energy>
    <i name="e_fr_energy">    -51.12186849 </i>
    <i name="e_wo_entrp">    -51.12186849 </i>
    <i name="e_0_energy">    -51.12186849 </i>
   </energy>
  </scstep>
  <scstep>
   <time name="total">   12.98   13.08</time>
   <energy>
    <i name="e_fr_energy">    -51.12190561 </i>
    <i name="e_wo_entrp">    -51.12190561 </i>
    <i name="e_0_energy">    -51.12190561 </i>
   </energy>
  </scstep>
  <scstep>
   <time name="total">   13.01   13.12</time>
   <energy>
    <i name="e_fr_energy">    -51.12191632 </i>
    <i name="e_wo_entrp">    -51.12191632 </i>
    <i name="e_0_energy">    -51.12191632 </i>
   </energy>
  </scstep>
  <scstep>
   <time name="total">   13.04   13.15</time>
   <energy>
    <i name="e_fr_energy">    -51.12193355 </i>
    <i name="e_wo_entrp">    -51.12193355 </i>
    <i name="e_0_energy">    -51.12193355 </i>
   </energy>
  </scstep>
  <scstep>
   <time name="total">   13.12   13.23</time>
   <energy>
    <i name="e_fr_energy">    -51.12192983 </i>
    <i name="e_wo_entrp">    -51.12192983 </i>
    <i name="e_0_energy">    -51.12192983 </i>
   </energy>
  </scstep>
  <scstep>
   <time name="total">   13.10   13.21</time>
   <energy>
    <i name="e_fr_energy">    -51.12202339 </i>
    <i name="e_wo_entrp">    -51.12202339 </i>
    <i name="e_0_energy">    -51.12202339 </i>
   </energy>
  </scstep>
  <scstep>
   <time name="total">   13.07   13.18</time>
   <energy>
    <i name="e_fr_energy">    -51.12184276 </i>
    <i name="e_wo_entrp">    -51.12184276 </i>
    <i name="e_0_energy">    -51.12184276 </i>
   </energy>
  </scstep>
  <scstep>
   <time name="total">   13.11   13.21</time>
   <energy>
    <i name="e_fr_energy">    -51.12180814 </i>
    <i name="e_wo_entrp">    -51.12180814 </i>
    <i name="e_0_energy">    -51.12180814 </i>
   </energy>
  </scstep>
  <scstep>
   <time name="total">   13.11   13.22</time>
   <energy>
    <i name="e_fr_energy">    -51.12199994 </i>
    <i name="e_wo_entrp">    -51.12199994 </i>
    <i name="e_0_energy">    -51.12199994 </i>
   </energy>
  </scstep>
  <scstep>
   <time name="total">   13.23   13.34</time>
   <energy>
    <i name="e_fr_energy">    -51.12229653 </i>
    <i name="e_wo_entrp">    -51.12229653 </i>
    <i name="e_0_energy">    -51.12229653 </i>
   </energy>
  </scstep>
  <scstep>
   <time name="total">   13.14   13.25</time>
   <energy>
    <i name="e_fr_energy">    -51.12178715 </i>
    <i name="e_wo_entrp">    -51.12178715 </i>
    <i name="e_0_energy">    -51.12178715 </i>
   </energy>
  </scstep>
  <scstep>
   <time name="total">   13.16   13.27</time>
   <energy>
    <i name="e_fr_energy">    -51.12165420 </i>
    <i name="e_wo_entrp">    -51.12165420 </i>
    <i name="e_0_energy">    -51.12165420 </i>
   </energy>
  </scstep>
  <scstep>
   <time name="total">   13.18   13.29</time>
   <energy>
    <i name="e_fr_energy">    -51.12213481 </i>
    <i name="e_wo_entrp">    -51.12213481 </i>
    <i name="e_0_energy">    -51.12213481 </i>
   </energy>
  </scstep>
  <scstep>
   <time name="total">   13.27   13.38</time>
   <energy>
    <i name="e_fr_energy">    -51.12205522 </i>
    <i name="e_wo_entrp">    -51.12205522 </i>
    <i name="e_0_energy">    -51.12205522 </i>
   </energy>
  </scstep>
  <scstep>
   <time name="total">    8.86    8.93</time>
   <energy>
    <i name="e_fr_energy">    -56.85457432 </i>
    <i name="e_wo_entrp">    -56.85457432 </i>
    <i name="e_0_energy">    -56.85457432 </i>
   </energy>
  </scstep>
  <scstep>
   <time name="total">    9.42    9.50</time>
   <energy>
    <i name="e_fr_energy">    -50.83221103 </i>
    <i name="e_wo_entrp">    -50.83221103 </i>
    <i name="e_0_energy">    -50.83221103 </i>
   </energy>
  </scstep>
  <scstep>
   <time name="total">   10.42   10.51</time>
   <energy>
    <i name="e_fr_energy">    -51.01618166 </i>
    <i name="e_wo_entrp">    -51.01618166 </i>
    <i name="e_0_energy">    -51.01618166 </i>
   </energy>
  </scstep>
  <scstep>
   <time name="total">   10.46   10.55</time>
   <energy>
    <i name="e_fr_energy">    -50.94787780 </i>
    <i name="e_wo_entrp">    -50.94787780 </i>
    <i name="e_0_energy">    -50.94787780 </i>
   </energy>
  </scstep>
  <scstep>
   <time name="total">   11.80   11.90</time>
   <energy>
    <i name="e_fr_energy">    -50.94016888 </i>
    <i name="e_wo_entrp">    -50.94016888 </i>
    <i name="e_0_energy">    -50.94016888 </i>
   </energy>
  </scstep>
  <scstep>
   <time name="total">   12.07   12.17</time>
   <energy>
    <i name="e_fr_energy">    -50.94676614 </i>
    <i name="e_wo_entrp">    -50.94676614 </i>
    <i name="e_0_energy">    -50.94676614 </i>
   </energy>
  </scstep>
  <scstep>
   <time name="total">   12.36   12.47</time>
   <energy>
    <i name="e_fr_energy">    -50.95266867 </i>
    <i name="e_wo_entrp">    -50.95266867 </i>
    <i name="e_0_energy">    -50.95266867 </i>
   </energy>
  </scstep>
  <scstep>
   <time name="total">   11.88   11.99</time>
   <energy>
    <i name="e_fr_energy">    -50.95373388 </i>
    <i name="e_wo_entrp">    -50.95373388 </i>
    <i name="e_0_energy">    -50.95373388 </i>
   </energy>
  </scstep>
  <scstep>
   <time name="total">   12.64   12.75</time>
   <energy>
    <i name="e_fr_energy">    -50.95376455 </i>
    <i name="e_wo_entrp">    -50.95376455 </i>
    <i name="e_0_energy">    -50.95376455 </i>
   </energy>
  </scstep>
  <scstep>
   <time name="total">   12.60   12.71</time>
   <energy>
    <i name="e_fr_energy">    -50.95387291 </i>
    <i name="e_wo_entrp">    -50.95387291 </i>
    <i name="e_0_energy">    -50.95387291 </i>
   </energy>
  </scstep>
  <scstep>
   <time name="total">   12.73   12.84</time>
   <energy>
    <i name="e_fr_energy">    -50.95384276 </i>
    <i name="e_wo_entrp">    -50.95384276 </i>
    <i name="e_0_energy">    -50.95384276 </i>
   </energy>
  </scstep>
  <scstep>
   <time name="total">   12.76   12.86</time>
   <energy>
    <i name="e_fr_energy">    -50.95358542 </i>
    <i name="e_wo_entrp">    -50.95358542 </i>
    <i name="e_0_energy">    -50.95358542 </i>
   </energy>
  </scstep>
  <scstep>
   <time name="total">   12.82   12.93</time>
   <energy>
    <i name="e_fr_energy">    -50.95367648 </i>
    <i name="e_wo_entrp">    -50.95367648 </i>
    <i name="e_0_energy">    -50.95367648 </i>
   </energy>
  </scstep>
  <scstep>
   <time name="total">   12.94   13.05</time>
   <energy>
    <i name="e_fr_energy">    -50.95372103 </i>
    <i name="e_wo_entrp">    -50.95372103 </i>
    <i name="e_0_energy">    -50.95372103 </i>
   </energy>
  </scstep>
  <scstep>
   <time name="total">   12.98   13.09</time>
   <energy>
    <i name="e_fr_energy">    -50.95367598 </i>
    <i name="e_wo_entrp">    -50.95367598 </i>
    <i name="e_0_energy">    -50.95367598 </i>
   </energy>
  </scstep>
  <scstep>
   <time name="total">   13.00   13.10</time>
   <energy>
    <i name="e_fr_energy">    -50.95365964 </i>
    <i name="e_wo_entrp">    -50.95365964 </i>
    <i name="e_0_energy">    -50.95365964 </i>
   </energy>
  </scstep>
  <scstep>
   <time name="total">   13.00   13.10</time>
   <energy>
    <i name="e_fr_energy">    -50.95372860 </i>
    <i name="e_wo_entrp">    -50.95372860 </i>
    <i name="e_0_energy">    -50.95372860 </i>
   </energy>
  </scstep>
  <scstep>
   <time name="total">   13.00   13.10</time>
   <energy>
    <i name="e_fr_energy">    -50.95368920 </i>
    <i name="e_wo_entrp">    -50.95368920 </i>
    <i name="e_0_energy">    -50.95368920 </i>
   </energy>
  </scstep>
  <scstep>
   <time name="total">   13.09   13.20</time>
   <energy>
    <i name="e_fr_energy">    -50.95383683 </i>
    <i name="e_wo_entrp">    -50.95383683 </i>
    <i name="e_0_energy">    -50.95383683 </i>
   </energy>
  </scstep>
  <scstep>
   <time name="total">   13.05   13.16</time>
   <energy>
    <i name="e_fr_energy">    -50.95368775 </i>
    <i name="e_wo_entrp">    -50.95368775 </i>
    <i name="e_0_energy">    -50.95368775 </i>
   </energy>
  </scstep>
  <scstep>
   <time name="total">   13.06   13.17</time>
   <energy>
    <i name="e_fr_energy">    -50.95376128 </i>
    <i name="e_wo_entrp">    -50.95376128 </i>
    <i name="e_0_energy">    -50.95376128 </i>
   </energy>
  </scstep>
  <scstep>
   <time name="total">   13.07   13.18</time>
   <energy>
    <i name="e_fr_energy">    -50.95369013 </i>
    <i name="e_wo_entrp">    -50.95369013 </i>
    <i name="e_0_energy">    -50.95369013 </i>
   </energy>
  </scstep>
  <scstep>
   <time name="total">   13.13   13.24</time>
   <energy>
    <i name="e_fr_energy">    -50.95381587 </i>
    <i name="e_wo_entrp">    -50.95381587 </i>
    <i name="e_0_energy">    -50.95381587 </i>
   </energy>
  </scstep>
  <scstep>
   <time name="total">   13.12   13.23</time>
   <energy>
    <i name="e_fr_energy">    -50.95365435 </i>
    <i name="e_wo_entrp">    -50.95365435 </i>
    <i name="e_0_energy">    -50.95365435 </i>
   </energy>
  </scstep>
  <scstep>
   <time name="total">   13.12   13.22</time>
   <energy>
    <i name="e_fr_energy">    -50.95378632 </i>
    <i name="e_wo_entrp">    -50.95378632 </i>
    <i name="e_0_energy">    -50.95378632 </i>
   </energy>
  </scstep>
  <scstep>
   <time name="total">    8.56    8.63</time>
   <energy>
    <i name="e_fr_energy">    -57.23782051 </i>
    <i name="e_wo_entrp">    -57.23782051 </i>
    <i name="e_0_energy">    -57.23782051 </i>
   </energy>
  </scstep>
  <scstep>
   <time name="total">    9.39    9.47</time>
   <energy>
    <i name="e_fr_energy">    -50.62062264 </i>
    <i name="e_wo_entrp">    -50.62062264 </i>
    <i name="e_0_energy">    -50.62062264 </i>
   </energy>
  </scstep>
  <scstep>
   <time name="total">    9.90    9.99</time>
   <energy>
    <i name="e_fr_energy">    -51.07133252 </i>
    <i name="e_wo_entrp">    -51.07133252 </i>
    <i name="e_0_energy">    -51.07133252 </i>
   </energy>
  </scstep>
  <scstep>
   <time name="total">   10.04   10.12</time>
   <energy>
    <i name="e_fr_energy">    -51.46509009 </i>
    <i name="e_wo_entrp">    -51.46509009 </i>
    <i name="e_0_energy">    -51.46509009 </i>
   </energy>
  </scstep>
  <scstep>
   <time name="total">   11.53   11.62</time>
   <energy>
    <i name="e_fr_energy">    -51.53537068 </i>
    <i name="e_wo_entrp">    -51.53537068 </i>
    <i name="e_0_energy">    -51.53537068 </i>
   </energy>
  </scstep>
  <scstep>
   <time name="total">   11.24   11.33</time>
   <energy>
    <i name="e_fr_energy">    -51.51836007 </i>
    <i name="e_wo_entrp">    -51.51836007 </i>
    <i name="e_0_energy">    -51.51836007 </i>
   </energy>
  </scstep>
  <scstep>
   <time name="total">   11.88   11.98</time>
   <energy>
    <i name="e_fr_energy">    -51.50043349 </i>
    <i name="e_wo_entrp">    -51.50043349 </i>
    <i name="e_0_energy">    -51.50043349 </i>
   </energy>
  </scstep>
  <scstep>
   <time name="total">   11.79   11.89</time>
   <energy>
    <i name="e_fr_energy">    -51.49461863 </i>
    <i name="e_wo_entrp">    -51.49461863 </i>
    <i name="e_0_energy">    -51.49461863 </i>
   </energy>
  </scstep>
  <scstep>
   <time name="total">   12.32   12.42</time>
   <energy>
    <i name="e_fr_energy">    -51.49789069 </i>
    <i name="e_wo_entrp">    -51.49789069 </i>
    <i name="e_0_energy">    -51.49789069 </i>
   </energy>
  </scstep>
  <scstep>
   <time name="total">   11.62   11.71</time>
   <energy>
    <i name="e_fr_energy">    -51.49993344 </i>
    <i name="e_wo_entrp">    -51.49993344 </i>
    <i name="e_0_energy">    -51.49993344 </i>
   </energy>
  </scstep>
  <scstep>
   <time name="total">   12.26   12.36</time>
   <energy>
    <i name="e_fr_energy">    -51.49896836 </i>
    <i name="e_wo_entrp">    -51.49896836 </i>
    <i name="e_0_energy">    -51.49896836 </i>
   </energy>
  </scstep>
  <scstep>
   <time name="total">   12.19   12.30</time>
   <energy>
    <i name="e_fr_energy">    -51.49669635 </i>
    <i name="e_wo_entrp">    -51.49669635 </i>
    <i name="e_0_energy">    -51.49669635 </i>
   </energy>
  </scstep>
  <scstep>
   <time name="total">   12.52   12.63</time>
   <energy>
    <i name="e_fr_energy">    -51.49561008 </i>
    <i name="e_wo_entrp">    -51.49561008 </i>
    <i name="e_0_energy">    -51.49561008 </i>
   </energy>
  </scstep>
  <scstep>
   <time name="total">   12.61   12.72</time>
   <energy>
    <i name="e_fr_energy">    -51.49514426 </i>
    <i name="e_wo_entrp">    -51.49514426 </i>
    <i name="e_0_energy">    -51.49514426 </i>
   </energy>
  </scstep>
  <scstep>
   <time name="total">   12.82   12.93</time>
   <energy>
    <i name="e_fr_energy">    -51.49505787 </i>
    <i name="e_wo_entrp">    -51.49505787 </i>
    <i name="e_0_energy">    -51.49505787 </i>
   </energy>
  </scstep>
  <scstep>
   <time name="total">   12.85   12.95</time>
   <energy>
    <i name="e_fr_energy">    -51.49517081 </i>
    <i name="e_wo_entrp">    -51.49517081 </i>
    <i name="e_0_energy">    -51.49517081 </i>
   </energy>
  </scstep>
  <scstep>
   <time name="total">   12.91   13.02</time>
   <energy>
    <i name="e_fr_energy">    -51.49524253 </i>
    <i name="e_wo_entrp">    -51.49524253 </i>
    <i name="e_0_energy">    -51.49524253 </i>
   </energy>
  </scstep>
  <scstep>
   <time name="total">   12.95   13.06</time>
   <energy>
    <i name="e_fr_energy">    -51.49531255 </i>
    <i name="e_wo_entrp">    -51.49531255 </i>
    <i name="e_0_energy">    -51.49531255 </i>
   </energy>
  </scstep>
  <scstep>
   <time name="total">   13.00   13.11</time>
   <energy>
    <i name="e_fr_energy">    -51.49522876 </i>
    <i name="e_wo_entrp">    -51.49522876 </i>
    <i name="e_0_energy">    -51.49522876 </i>
   </energy>
  </scstep>
  <scstep>
   <time name="total">   13.04   13.15</time>
   <energy>
    <i name="e_fr_energy">    -51.49522687 </i>
    <i name="e_wo_entrp">    -51.49522687 </i>
    <i name="e_0_energy">    -51.49522687 </i>
   </energy>
  </scstep>
  <scstep>
   <time name="total">   13.02   13.13</time>
   <energy>
    <i name="e_fr_energy">    -51.49523403 </i>
    <i name="e_wo_entrp">    -51.49523403 </i>
    <i name="e_0_energy">    -51.49523403 </i>
   </energy>
  </scstep>
  <scstep>
   <time name="total">   13.08   13.19</time>
   <energy>
    <i name="e_fr_energy">    -51.49526185 </i>
    <i name="e_wo_entrp">    -51.49526185 </i>
    <i name="e_0_energy">    -51.49526185 </i>
   </energy>
  </scstep>
  <scstep>
   <time name="total">   13.04   13.15</time>
   <energy>
    <i name="e_fr_energy">    -51.49520095 </i>
    <i name="e_wo_entrp">    -51.49520095 </i>
    <i name="e_0_energy">    -51.49520095 </i>
   </energy>
  </scstep>
  <scstep>
   <time name="total">   13.08   13.19</time>
   <energy>
    <i name="e_fr_energy">    -51.49523229 </i>
    <i name="e_wo_entrp">    -51.49523229 </i>
    <i name="e_0_energy">    -51.49523229 </i>
   </energy>
  </scstep>
  <scstep>
   <time name="total">   13.07   13.18</time>
   <energy>
    <i name="e_fr_energy">    -51.49523358 </i>
    <i name="e_wo_entrp">    -51.49523358 </i>
    <i name="e_0_energy">    -51.49523358 </i>
   </energy>
  </scstep>
  <scstep>
   <time name="total">   13.11   13.22</time>
   <energy>
    <i name="e_fr_energy">    -51.49529339 </i>
    <i name="e_wo_entrp">    -51.49529339 </i>
    <i name="e_0_energy">    -51.49529339 </i>
   </energy>
  </scstep>
  <scstep>
   <time name="total">    8.81    8.88</time>
   <energy>
    <i name="e_fr_energy">    -57.62964873 </i>
    <i name="e_wo_entrp">    -57.62964873 </i>
    <i name="e_0_energy">    -57.62964873 </i>
   </energy>
  </scstep>
  <scstep>
   <time name="total">    9.25    9.32</time>
   <energy>
    <i name="e_fr_energy">    -51.00908846 </i>
    <i name="e_wo_entrp">    -51.00908846 </i>
    <i name="e_0_energy">    -51.00908846 </i>
   </energy>
  </scstep>
  <scstep>
   <time name="total">   10.06   10.14</time>
   <energy>
    <i name="e_fr_energy">    -51.18276734 </i>
    <i name="e_wo_entrp">    -51.18276734 </i>
    <i name="e_0_energy">    -51.18276734 </i>
   </energy>
  </scstep>
  <scstep>
   <time name="total">   10.54   10.62</time>
   <energy>
    <i name="e_fr_energy">    -51.11452333 </i>
    <i name="e_wo_entrp">    -51.11452333 </i>
    <i name="e_0_energy">    -51.11452333 </i>
   </energy>
  </scstep>
  <scstep>
   <time name="total">   11.54   11.64</time>
   <energy>
    <i name="e_fr_energy">    -51.10999128 </i>
    <i name="e_wo_entrp">    -51.10999128 </i>
    <i name="e_0_energy">    -51.10999128 </i>
   </energy>
  </scstep>
  <scstep>
   <time name="total">   11.90   12.00</time>
   <energy>
    <i name="e_fr_energy">    -51.11802820 </i>
    <i name="e_wo_entrp">    -51.11802820 </i>
    <i name="e_0_energy">    -51.11802820 </i>
   </energy>
  </scstep>
  <scstep>
   <time name="total">   12.32   12.42</time>
   <energy>
    <i name="e_fr_energy">    -51.12476507 </i>
    <i name="e_wo_entrp">    -51.12476507 </i>
    <i name="e_0_energy">    -51.12476507 </i>
   </energy>
  </scstep>
  <scstep>
   <time name="total">   11.87   11.96</time>
   <energy>
    <i name="e_fr_energy">    -51.12228134 </i>
    <i name="e_wo_entrp">    -51.12228134 </i>
    <i name="e_0_energy">    -51.12228134 </i>
   </energy>
  </scstep>
  <scstep>
   <time name="total">   12.48   12.58</time>
   <energy>
    <i name="e_fr_energy">    -51.12274549 </i>
    <i name="e_wo_entrp">    -51.12274549 </i>
    <i name="e_0_energy">    -51.12274549 </i>
   </energy>
  </scstep>
  <scstep>
   <time name="total">   12.54   12.65</time>
   <energy>
    <i name="e_fr_energy">    -51.12233684 </i>
    <i name="e_wo_entrp">    -51.12233684 </i>
    <i name="e_0_energy">    -51.12233684 </i>
   </energy>
  </scstep>
  <scstep>
   <time name="total">   12.63   12.73</time>
   <energy>
    <i name="e_fr_energy">    -51.12180818 </i>
    <i name="e_wo_entrp">    -51.12180818 </i>
    <i name="e_0_energy">    -51.12180818 </i>
   </energy>
  </scstep>
  <scstep>
   <time name="total">   12.73   12.84</time>
   <energy>
    <i name="e_fr_energy">    -51.12155155 </i>
    <i name="e_wo_entrp">    -51.12155155 </i>
    <i name="e_0_energy">    -51.12155155 </i>
   </energy>
  </scstep>
  <scstep>
   <time name="total">   12.80   12.91</time>
   <energy>
    <i name="e_fr_energy">    -51.12237234 </i>
    <i name="e_wo_entrp">    -51.12237234 </i>
    <i name="e_0_energy">    -51.12237234 </i>
   </energy>
  </scstep>
  <scstep>
   <time name="total">   12.89   13.00</time>
   <energy>
    <i name="e_fr_energy">    -51.12228854 </i>
    <i name="e_wo_entrp">    -51.12228854 </i>
    <i name="e_0_energy">    -51.12228854 </i>
   </energy>
  </scstep>
  <scstep>
   <time name="total">   12.91   13.02</time>
   <energy>
    <i name="e_fr_energy">    -51.12191961 </i>
    <i name="e_wo_entrp">    -51.12191961 </i>
    <i name="e_0_energy">    -51.12191961 </i>
   </energy>
  </scstep>
  <scstep>
   <time name="total">   12.90   13.00</time>
   <energy>
    <i name="e_fr_energy">    -51.12198162 </i>
    <i name="e_wo_entrp">    -51.12198162 </i>
    <i name="e_0_energy">    -51.12198162 </i>
   </energy>
  </scstep>
  <scstep>
   <time name="total">   12.91   13.01</time>
   <energy>
    <i name="e_fr_energy">    -51.12195300 </i>
    <i name="e_wo_entrp">    -51.12195300 </i>
    <i name="e_0_energy">    -51.12195300 </i>
   </energy>
  </scstep>
  <scstep>
   <time name="total">   12.95   13.06</time>
   <energy>
    <i name="e_fr_energy">    -51.12193318 </i>
    <i name="e_wo_entrp">    -51.12193318 </i>
    <i name="e_0_energy">    -51.12193318 </i>
   </energy>
  </scstep>
  <scstep>
   <time name="total">   13.00   13.11</time>
   <energy>
    <i name="e_fr_energy">    -51.12193378 </i>
    <i name="e_wo_entrp">    -51.12193378 </i>
    <i name="e_0_energy">    -51.12193378 </i>
   </energy>
  </scstep>
  <scstep>
   <time name="total">   13.00   13.10</time>
   <energy>
    <i name="e_fr_energy">    -51.12197056 </i>
    <i name="e_wo_entrp">    -51.12197056 </i>
    <i name="e_0_energy">    -51.12197056 </i>
   </energy>
  </scstep>
  <scstep>
   <time name="total">   13.05   13.15</time>
   <energy>
    <i name="e_fr_energy">    -51.12198649 </i>
    <i name="e_wo_entrp">    -51.12198649 </i>
    <i name="e_0_energy">    -51.12198649 </i>
   </energy>
  </scstep>
  <scstep>
   <time name="total">   13.06   13.17</time>
   <energy>
    <i name="e_fr_energy">    -51.12189897 </i>
    <i name="e_wo_entrp">    -51.12189897 </i>
    <i name="e_0_energy">    -51.12189897 </i>
   </energy>
  </scstep>
  <scstep>
   <time name="total">   13.12   13.23</time>
   <energy>
    <i name="e_fr_energy">    -51.12203714 </i>
    <i name="e_wo_entrp">    -51.12203714 </i>
    <i name="e_0_energy">    -51.12203714 </i>
   </energy>
  </scstep>
  <scstep>
   <time name="total">   13.11   13.22</time>
   <energy>
    <i name="e_fr_energy">    -51.12228678 </i>
    <i name="e_wo_entrp">    -51.12228678 </i>
    <i name="e_0_energy">    -51.12228678 </i>
   </energy>
  </scstep>
  <scstep>
   <time name="total">   13.10   13.21</time>
   <energy>
    <i name="e_fr_energy">    -51.12181589 </i>
    <i name="e_wo_entrp">    -51.12181589 </i>
    <i name="e_0_energy">    -51.12181589 </i>
   </energy>
  </scstep>
  <scstep>
   <time name="total">   13.12   13.23</time>
   <energy>
    <i name="e_fr_energy">    -51.12180873 </i>
    <i name="e_wo_entrp">    -51.12180873 </i>
    <i name="e_0_energy">    -51.12180873 </i>
   </energy>
  </scstep>
  <scstep>
   <time name="total">   13.10   13.21</time>
   <energy>
    <i name="e_fr_energy">    -51.12213702 </i>
    <i name="e_wo_entrp">    -51.12213702 </i>
    <i name="e_0_energy">    -51.12213702 </i>
   </energy>
  </scstep>
  <scstep>
   <time name="total">   13.17   13.28</time>
   <energy>
    <i name="e_fr_energy">    -51.12213573 </i>
    <i name="e_wo_entrp">    -51.12213573 </i>
    <i name="e_0_energy">    -51.12213573 </i>
   </energy>
  </scstep>
  <scstep>
   <time name="total">    8.84    8.92</time>
   <energy>
    <i name="e_fr_energy">    -56.85457367 </i>
    <i name="e_wo_entrp">    -56.85457367 </i>
    <i name="e_0_energy">    -56.85457367 </i>
   </energy>
  </scstep>
  <scstep>
   <time name="total">    9.38    9.46</time>
   <energy>
    <i name="e_fr_energy">    -50.83224921 </i>
    <i name="e_wo_entrp">    -50.83224921 </i>
    <i name="e_0_energy">    -50.83224921 </i>
   </energy>
  </scstep>
  <scstep>
   <time name="total">   10.44   10.53</time>
   <energy>
    <i name="e_fr_energy">    -51.01655860 </i>
    <i name="e_wo_entrp">    -51.01655860 </i>
    <i name="e_0_energy">    -51.01655860 </i>
   </energy>
  </scstep>
  <scstep>
   <time name="total">   10.48   10.57</time>
   <energy>
    <i name="e_fr_energy">    -50.94773869 </i>
    <i name="e_wo_entrp">    -50.94773869 </i>
    <i name="e_0_energy">    -50.94773869 </i>
   </energy>
  </scstep>
  <scstep>
   <time name="total">   11.82   11.92</time>
   <energy>
    <i name="e_fr_energy">    -50.94018867 </i>
    <i name="e_wo_entrp">    -50.94018867 </i>
    <i name="e_0_energy">    -50.94018867 </i>
   </energy>
  </scstep>
  <scstep>
   <time name="total">   12.10   12.20</time>
   <energy>
    <i name="e_fr_energy">    -50.94682181 </i>
    <i name="e_wo_entrp">    -50.94682181 </i>
    <i name="e_0_energy">    -50.94682181 </i>
   </energy>
  </scstep>
  <scstep>
   <time name="total">   12.37   12.47</time>
   <energy>
    <i name="e_fr_energy">    -50.95263613 </i>
    <i name="e_wo_entrp">    -50.95263613 </i>
    <i name="e_0_energy">    -50.95263613 </i>
   </energy>
  </scstep>
  <scstep>
   <time name="total">   11.93   12.03</time>
   <energy>
    <i name="e_fr_energy">    -50.95367985 </i>
    <i name="e_wo_entrp">    -50.95367985 </i>
    <i name="e_0_energy">    -50.95367985 </i>
   </energy>
  </scstep>
  <scstep>
   <time name="total">   12.60   12.70</time>
   <energy>
    <i name="e_fr_energy">    -50.95370123 </i>
    <i name="e_wo_entrp">    -50.95370123 </i>
    <i name="e_0_energy">    -50.95370123 </i>
   </energy>
  </scstep>
  <scstep>
   <time name="total">   12.59   12.69</time>
   <energy>
    <i name="e_fr_energy">    -50.95381404 </i>
    <i name="e_wo_entrp">    -50.95381404 </i>
    <i name="e_0_energy">    -50.95381404 </i>
   </energy>
  </scstep>
  <scstep>
   <time name="total">   12.69   12.80</time>
   <energy>
    <i name="e_fr_energy">    -50.95384664 </i>
    <i name="e_wo_entrp">    -50.95384664 </i>
    <i name="e_0_energy">    -50.95384664 </i>
   </energy>
  </scstep>
  <scstep>
   <time name="total">   12.72   12.83</time>
   <energy>
    <i name="e_fr_energy">    -50.95352770 </i>
    <i name="e_wo_entrp">    -50.95352770 </i>
    <i name="e_0_energy">    -50.95352770 </i>
   </energy>
  </scstep>
  <scstep>
   <time name="total">   12.78   12.89</time>
   <energy>
    <i name="e_fr_energy">    -50.95363107 </i>
    <i name="e_wo_entrp">    -50.95363107 </i>
    <i name="e_0_energy">    -50.95363107 </i>
   </energy>
  </scstep>
  <scstep>
   <time name="total">   12.94   13.05</time>
   <energy>
    <i name="e_fr_energy">    -50.95365285 </i>
    <i name="e_wo_entrp">    -50.95365285 </i>
    <i name="e_0_energy">    -50.95365285 </i>
   </energy>
  </scstep>
  <scstep>
   <time name="total">   12.93   13.04</time>
   <energy>
    <i name="e_fr_energy">    -50.95365584 </i>
    <i name="e_wo_entrp">    -50.95365584 </i>
    <i name="e_0_energy">    -50.95365584 </i>
   </energy>
  </scstep>
  <scstep>
   <time name="total">   12.98   13.09</time>
   <energy>
    <i name="e_fr_energy">    -50.95358001 </i>
    <i name="e_wo_entrp">    -50.95358001 </i>
    <i name="e_0_energy">    -50.95358001 </i>
   </energy>
  </scstep>
  <scstep>
   <time name="total">   12.95   13.05</time>
   <energy>
    <i name="e_fr_energy">    -50.95369923 </i>
    <i name="e_wo_entrp">    -50.95369923 </i>
    <i name="e_0_energy">    -50.95369923 </i>
   </energy>
  </scstep>
  <scstep>
   <time name="total">   12.99   13.10</time>
   <energy>
    <i name="e_fr_energy">    -50.95363103 </i>
    <i name="e_wo_entrp">    -50.95363103 </i>
    <i name="e_0_energy">    -50.95363103 </i>
   </energy>
  </scstep>
  <scstep>
   <time name="total">   13.05   13.17</time>
   <energy>
    <i name="e_fr_energy">    -50.95379502 </i>
    <i name="e_wo_entrp">    -50.95379502 </i>
    <i name="e_0_energy">    -50.95379502 </i>
   </energy>
  </scstep>
  <scstep>
   <time name="total">   13.07   13.18</time>
   <energy>
    <i name="e_fr_energy">    -50.95363490 </i>
    <i name="e_wo_entrp">    -50.95363490 </i>
    <i name="e_0_energy">    -50.95363490 </i>
   </energy>
  </scstep>
  <scstep>
   <time name="total">   13.05   13.16</time>
   <energy>
    <i name="e_fr_energy">    -50.95368774 </i>
    <i name="e_wo_entrp">    -50.95368774 </i>
    <i name="e_0_energy">    -50.95368774 </i>
   </energy>
  </scstep>
  <scstep>
   <time name="total">   13.10   13.21</time>
   <energy>
    <i name="e_fr_energy">    -50.95366190 </i>
    <i name="e_wo_entrp">    -50.95366190 </i>
    <i name="e_0_energy">    -50.95366190 </i>
   </energy>
  </scstep>
  <scstep>
   <time name="total">   13.15   13.26</time>
   <energy>
    <i name="e_fr_energy">    -50.95372066 </i>
    <i name="e_wo_entrp">    -50.95372066 </i>
    <i name="e_0_energy">    -50.95372066 </i>
   </energy>
  </scstep>
  <scstep>
   <time name="total">    8.55    8.62</time>
   <energy>
    <i name="e_fr_energy">    -57.23781891 </i>
    <i name="e_wo_entrp">    -57.23781891 </i>
    <i name="e_0_energy">    -57.23781891 </i>
   </energy>
  </scstep>
  <scstep>
   <time name="total">    9.38    9.45</time>
   <energy>
    <i name="e_fr_energy">    -50.62006641 </i>
    <i name="e_wo_entrp">    -50.62006641 </i>
    <i name="e_0_energy">    -50.62006641 </i>
   </energy>
  </scstep>
  <scstep>
   <time name="total">    9.90    9.98</time>
   <energy>
    <i name="e_fr_energy">    -51.07181510 </i>
    <i name="e_wo_entrp">    -51.07181510 </i>
    <i name="e_0_energy">    -51.07181510 </i>
   </energy>
  </scstep>
  <scstep>
   <time name="total">   10.05   10.14</time>
   <energy>
    <i name="e_fr_energy">    -51.46500885 </i>
    <i name="e_wo_entrp">    -51.46500885 </i>
    <i name="e_0_energy">    -51.46500885 </i>
   </energy>
  </scstep>
  <scstep>
   <time name="total">   11.53   11.62</time>
   <energy>
    <i name="e_fr_energy">    -51.53564394 </i>
    <i name="e_wo_entrp">    -51.53564394 </i>
    <i name="e_0_energy">    -51.53564394 </i>
   </energy>
  </scstep>
  <scstep>
   <time name="total">   11.23   11.32</time>
   <energy>
    <i name="e_fr_energy">    -51.51858330 </i>
    <i name="e_wo_entrp">    -51.51858330 </i>
    <i name="e_0_energy">    -51.51858330 </i>
   </energy>
  </scstep>
  <scstep>
   <time name="total">   11.89   11.99</time>
   <energy>
    <i name="e_fr_energy">    -51.50059348 </i>
    <i name="e_wo_entrp">    -51.50059348 </i>
    <i name="e_0_energy">    -51.50059348 </i>
   </energy>
  </scstep>
  <scstep>
   <time name="total">    9.30   13.81</time>
   <energy>
    <i name="e_fr_energy">    -51.49465815 </i>
    <i name="e_wo_entrp">    -51.49465815 </i>
    <i name="e_0_energy">    -51.49465815 </i>
   </energy>
  </scstep>
  <scstep>
   <time name="total">   12.31   12.42</time>
   <energy>
    <i name="e_fr_energy">    -51.49789273 </i>
    <i name="e_wo_entrp">    -51.49789273 </i>
    <i name="e_0_energy">    -51.49789273 </i>
   </energy>
  </scstep>
  <scstep>
   <time name="total">   11.68   11.78</time>
   <energy>
    <i name="e_fr_energy">    -51.49996160 </i>
    <i name="e_wo_entrp">    -51.49996160 </i>
    <i name="e_0_energy">    -51.49996160 </i>
   </energy>
  </scstep>
  <scstep>
   <time name="total">   12.22   12.32</time>
   <energy>
    <i name="e_fr_energy">    -51.49898801 </i>
    <i name="e_wo_entrp">    -51.49898801 </i>
    <i name="e_0_energy">    -51.49898801 </i>
   </energy>
  </scstep>
  <scstep>
   <time name="total">   12.23   12.33</time>
   <energy>
    <i name="e_fr_energy">    -51.49676305 </i>
    <i name="e_wo_entrp">    -51.49676305 </i>
    <i name="e_0_energy">    -51.49676305 </i>
   </energy>
  </scstep>
  <scstep>
   <time name="total">   12.53   12.63</time>
   <energy>
    <i name="e_fr_energy">    -51.49565394 </i>
    <i name="e_wo_entrp">    -51.49565394 </i>
    <i name="e_0_energy">    -51.49565394 </i>
   </energy>
  </scstep>
  <scstep>
   <time name="total">   12.61   12.72</time>
   <energy>
    <i name="e_fr_energy">    -51.49521750 </i>
    <i name="e_wo_entrp">    -51.49521750 </i>
    <i name="e_0_energy">    -51.49521750 </i>
   </energy>
  </scstep>
  <scstep>
   <time name="total">   12.76   12.87</time>
   <energy>
    <i name="e_fr_energy">    -51.49510690 </i>
    <i name="e_wo_entrp">    -51.49510690 </i>
    <i name="e_0_energy">    -51.49510690 </i>
   </energy>
  </scstep>
  <scstep>
   <time name="total">   12.82   12.93</time>
   <energy>
    <i name="e_fr_energy">    -51.49520959 </i>
    <i name="e_wo_entrp">    -51.49520959 </i>
    <i name="e_0_energy">    -51.49520959 </i>
   </energy>
  </scstep>
  <scstep>
   <time name="total">   12.88   12.99</time>
   <energy>
    <i name="e_fr_energy">    -51.49531237 </i>
    <i name="e_wo_entrp">    -51.49531237 </i>
    <i name="e_0_energy">    -51.49531237 </i>
   </energy>
  </scstep>
  <scstep>
   <time name="total">   12.94   13.04</time>
   <energy>
    <i name="e_fr_energy">    -51.49527789 </i>
    <i name="e_wo_entrp">    -51.49527789 </i>
    <i name="e_0_energy">    -51.49527789 </i>
   </energy>
  </scstep>
  <scstep>
   <time name="total">   12.94   13.05</time>
   <energy>
    <i name="e_fr_energy">    -51.49526180 </i>
    <i name="e_wo_entrp">    -51.49526180 </i>
    <i name="e_0_energy">    -51.49526180 </i>
   </energy>
  </scstep>
  <scstep>
   <time name="total">   13.01   13.11</time>
   <energy>
    <i name="e_fr_energy">    -51.49529558 </i>
    <i name="e_wo_entrp">    -51.49529558 </i>
    <i name="e_0_energy">    -51.49529558 </i>
   </energy>
  </scstep>
  <scstep>
   <time name="total">   13.01   13.12</time>
   <energy>
    <i name="e_fr_energy">    -51.49528863 </i>
    <i name="e_wo_entrp">    -51.49528863 </i>
    <i name="e_0_energy">    -51.49528863 </i>
   </energy>
  </scstep>
  <scstep>
   <time name="total">   13.02   13.13</time>
   <energy>
    <i name="e_fr_energy">    -51.49532556 </i>
    <i name="e_wo_entrp">    -51.49532556 </i>
    <i name="e_0_energy">    -51.49532556 </i>
   </energy>
  </scstep>
  <scstep>
   <time name="total">   13.08   13.19</time>
   <energy>
    <i name="e_fr_energy">    -51.49525857 </i>
    <i name="e_wo_entrp">    -51.49525857 </i>
    <i name="e_0_energy">    -51.49525857 </i>
   </energy>
  </scstep>
  <scstep>
   <time name="total">   13.11   13.22</time>
   <energy>
    <i name="e_fr_energy">    -51.49532256 </i>
    <i name="e_wo_entrp">    -51.49532256 </i>
    <i name="e_0_energy">    -51.49532256 </i>
   </energy>
  </scstep>
  <scstep>
   <time name="total">    8.82    8.89</time>
   <energy>
    <i name="e_fr_energy">    -57.59712179 </i>
    <i name="e_wo_entrp">    -57.59712179 </i>
    <i name="e_0_energy">    -57.59712179 </i>
   </energy>
  </scstep>
  <scstep>
   <time name="total">    9.26    9.34</time>
   <energy>
    <i name="e_fr_energy">    -51.00978724 </i>
    <i name="e_wo_entrp">    -51.00978724 </i>
    <i name="e_0_energy">    -51.00978724 </i>
   </energy>
  </scstep>
  <scstep>
   <time name="total">   10.06   10.15</time>
   <energy>
    <i name="e_fr_energy">    -51.18342382 </i>
    <i name="e_wo_entrp">    -51.18342382 </i>
    <i name="e_0_energy">    -51.18342382 </i>
   </energy>
  </scstep>
  <scstep>
   <time name="total">   10.50   10.59</time>
   <energy>
    <i name="e_fr_energy">    -51.11445018 </i>
    <i name="e_wo_entrp">    -51.11445018 </i>
    <i name="e_0_energy">    -51.11445018 </i>
   </energy>
  </scstep>
  <scstep>
   <time name="total">   11.53   11.62</time>
   <energy>
    <i name="e_fr_energy">    -51.11019207 </i>
    <i name="e_wo_entrp">    -51.11019207 </i>
    <i name="e_0_energy">    -51.11019207 </i>
   </energy>
  </scstep>
  <scstep>
   <time name="total">   11.90   12.00</time>
   <energy>
    <i name="e_fr_energy">    -51.11826215 </i>
    <i name="e_wo_entrp">    -51.11826215 </i>
    <i name="e_0_energy">    -51.11826215 </i>
   </energy>
  </scstep>
  <scstep>
   <time name="total">   12.30   12.40</time>
   <energy>
    <i name="e_fr_energy">    -51.12498066 </i>
    <i name="e_wo_entrp">    -51.12498066 </i>
    <i name="e_0_energy">    -51.12498066 </i>
   </energy>
  </scstep>
  <scstep>
   <time name="total">   11.84   11.93</time>
   <energy>
    <i name="e_fr_energy">    -51.12236445 </i>
    <i name="e_wo_entrp">    -51.12236445 </i>
    <i name="e_0_energy">    -51.12236445 </i>
   </energy>
  </scstep>
  <scstep>
   <time name="total">   12.48   12.58</time>
   <energy>
    <i name="e_fr_energy">    -51.12265252 </i>
    <i name="e_wo_entrp">    -51.12265252 </i>
    <i name="e_0_energy">    -51.12265252 </i>
   </energy>
  </scstep>
  <scstep>
   <time name="total">   12.57   12.67</time>
   <energy>
    <i name="e_fr_energy">    -51.12241754 </i>
    <i name="e_wo_entrp">    -51.12241754 </i>
    <i name="e_0_energy">    -51.12241754 </i>
   </energy>
  </scstep>
  <scstep>
   <time name="total">   12.63   12.73</time>
   <energy>
    <i name="e_fr_energy">    -51.12191574 </i>
    <i name="e_wo_entrp">    -51.12191574 </i>
    <i name="e_0_energy">    -51.12191574 </i>
   </energy>
  </scstep>
  <scstep>
   <time name="total">   12.72   12.83</time>
   <energy>
    <i name="e_fr_energy">    -51.12168924 </i>
    <i name="e_wo_entrp">    -51.12168924 </i>
    <i name="e_0_energy">    -51.12168924 </i>
   </energy>
  </scstep>
  <scstep>
   <time name="total">   12.76   12.87</time>
   <energy>
    <i name="e_fr_energy">    -51.12245592 </i>
    <i name="e_wo_entrp">    -51.12245592 </i>
    <i name="e_0_energy">    -51.12245592 </i>
   </energy>
  </scstep>
  <scstep>
   <time name="total">   12.89   12.99</time>
   <energy>
    <i name="e_fr_energy">    -51.12241132 </i>
    <i name="e_wo_entrp">    -51.12241132 </i>
    <i name="e_0_energy">    -51.12241132 </i>
   </energy>
  </scstep>
  <scstep>
   <time name="total">   12.89   13.00</time>
   <energy>
    <i name="e_fr_energy">    -51.12205234 </i>
    <i name="e_wo_entrp">    -51.12205234 </i>
    <i name="e_0_energy">    -51.12205234 </i>
   </energy>
  </scstep>
  <scstep>
   <time name="total">   12.95   13.06</time>
   <energy>
    <i name="e_fr_energy">    -51.12202647 </i>
    <i name="e_wo_entrp">    -51.12202647 </i>
    <i name="e_0_energy">    -51.12202647 </i>
   </energy>
  </scstep>
  <scstep>
   <time name="total">   12.96   13.07</time>
   <energy>
    <i name="e_fr_energy">    -51.12213118 </i>
    <i name="e_wo_entrp">    -51.12213118 </i>
    <i name="e_0_energy">    -51.12213118 </i>
   </energy>
  </scstep>
  <scstep>
   <time name="total">   12.96   13.07</time>
   <energy>
    <i name="e_fr_energy">    -51.12198090 </i>
    <i name="e_wo_entrp">    -51.12198090 </i>
    <i name="e_0_energy">    -51.12198090 </i>
   </energy>
  </scstep>
  <scstep>
   <time name="total">   13.01   13.12</time>
   <energy>
    <i name="e_fr_energy">    -51.12202056 </i>
    <i name="e_wo_entrp">    -51.12202056 </i>
    <i name="e_0_energy">    -51.12202056 </i>
   </energy>
  </scstep>
  <scstep>
   <time name="total">   13.02   13.12</time>
   <energy>
    <i name="e_fr_energy">    -51.12206464 </i>
    <i name="e_wo_entrp">    -51.12206464 </i>
    <i name="e_0_energy">    -51.12206464 </i>
   </energy>
  </scstep>
  <scstep>
   <time name="total">   13.03   13.14</time>
   <energy>
    <i name="e_fr_energy">    -51.12203195 </i>
    <i name="e_wo_entrp">    -51.12203195 </i>
    <i name="e_0_energy">    -51.12203195 </i>
   </energy>
  </scstep>
  <scstep>
   <time name="total">   13.10   13.21</time>
   <energy>
    <i name="e_fr_energy">    -51.12190645 </i>
    <i name="e_wo_entrp">    -51.12190645 </i>
    <i name="e_0_energy">    -51.12190645 </i>
   </energy>
  </scstep>
  <scstep>
   <time name="total">   13.06   13.17</time>
   <energy>
    <i name="e_fr_energy">    -51.12208396 </i>
    <i name="e_wo_entrp">    -51.12208396 </i>
    <i name="e_0_energy">    -51.12208396 </i>
   </energy>
  </scstep>
  <scstep>
   <time name="total">   13.09   13.20</time>
   <energy>
    <i name="e_fr_energy">    -51.12235460 </i>
    <i name="e_wo_entrp">    -51.12235460 </i>
    <i name="e_0_energy">    -51.12235460 </i>
   </energy>
  </scstep>
  <scstep>
   <time name="total">   13.09   13.20</time>
   <energy>
    <i name="e_fr_energy">    -51.12200766 </i>
    <i name="e_wo_entrp">    -51.12200766 </i>
    <i name="e_0_energy">    -51.12200766 </i>
   </energy>
  </scstep>
  <scstep>
   <time name="total">   13.12   13.23</time>
   <energy>
    <i name="e_fr_energy">    -51.12170642 </i>
    <i name="e_wo_entrp">    -51.12170642 </i>
    <i name="e_0_energy">    -51.12170642 </i>
   </energy>
  </scstep>
  <scstep>
   <time name="total">   13.21   13.32</time>
   <energy>
    <i name="e_fr_energy">    -51.12219907 </i>
    <i name="e_wo_entrp">    -51.12219907 </i>
    <i name="e_0_energy">    -51.12219907 </i>
   </energy>
  </scstep>
  <scstep>
   <time name="total">   13.16   13.27</time>
   <energy>
    <i name="e_fr_energy">    -51.12224893 </i>
    <i name="e_wo_entrp">    -51.12224893 </i>
    <i name="e_0_energy">    -51.12224893 </i>
   </energy>
  </scstep>
  <scstep>
   <time name="total">    8.87    8.94</time>
   <energy>
    <i name="e_fr_energy">    -56.81203235 </i>
    <i name="e_wo_entrp">    -56.81203235 </i>
    <i name="e_0_energy">    -56.81203235 </i>
   </energy>
  </scstep>
  <scstep>
   <time name="total">    9.40    9.47</time>
   <energy>
    <i name="e_fr_energy">    -50.83298586 </i>
    <i name="e_wo_entrp">    -50.83298586 </i>
    <i name="e_0_energy">    -50.83298586 </i>
   </energy>
  </scstep>
  <scstep>
   <time name="total">   10.39   10.48</time>
   <energy>
    <i name="e_fr_energy">    -51.01527449 </i>
    <i name="e_wo_entrp">    -51.01527449 </i>
    <i name="e_0_energy">    -51.01527449 </i>
   </energy>
  </scstep>
  <scstep>
   <time name="total">   10.47   10.56</time>
   <energy>
    <i name="e_fr_energy">    -50.94734290 </i>
    <i name="e_wo_entrp">    -50.94734290 </i>
    <i name="e_0_energy">    -50.94734290 </i>
   </energy>
  </scstep>
  <scstep>
   <time name="total">   11.81   11.91</time>
   <energy>
    <i name="e_fr_energy">    -50.93994287 </i>
    <i name="e_wo_entrp">    -50.93994287 </i>
    <i name="e_0_energy">    -50.93994287 </i>
   </energy>
  </scstep>
  <scstep>
   <time name="total">   12.07   12.17</time>
   <energy>
    <i name="e_fr_energy">    -50.94663647 </i>
    <i name="e_wo_entrp">    -50.94663647 </i>
    <i name="e_0_energy">    -50.94663647 </i>
   </energy>
  </scstep>
  <scstep>
   <time name="total">   12.37   12.48</time>
   <energy>
    <i name="e_fr_energy">    -50.95267380 </i>
    <i name="e_wo_entrp">    -50.95267380 </i>
    <i name="e_0_energy">    -50.95267380 </i>
   </energy>
  </scstep>
  <scstep>
   <time name="total">   11.98   12.08</time>
   <energy>
    <i name="e_fr_energy">    -50.95373585 </i>
    <i name="e_wo_entrp">    -50.95373585 </i>
    <i name="e_0_energy">    -50.95373585 </i>
   </energy>
  </scstep>
  <scstep>
   <time name="total">   12.55   12.65</time>
   <energy>
    <i name="e_fr_energy">    -50.95372949 </i>
    <i name="e_wo_entrp">    -50.95372949 </i>
    <i name="e_0_energy">    -50.95372949 </i>
   </energy>
  </scstep>
  <scstep>
   <time name="total">   12.65   12.76</time>
   <energy>
    <i name="e_fr_energy">    -50.95383287 </i>
    <i name="e_wo_entrp">    -50.95383287 </i>
    <i name="e_0_energy">    -50.95383287 </i>
   </energy>
  </scstep>
  <scstep>
   <time name="total">   12.74   12.85</time>
   <energy>
    <i name="e_fr_energy">    -50.95386517 </i>
    <i name="e_wo_entrp">    -50.95386517 </i>
    <i name="e_0_energy">    -50.95386517 </i>
   </energy>
  </scstep>
  <scstep>
   <time name="total">   12.83   12.94</time>
   <energy>
    <i name="e_fr_energy">    -50.95355415 </i>
    <i name="e_wo_entrp">    -50.95355415 </i>
    <i name="e_0_energy">    -50.95355415 </i>
   </energy>
  </scstep>
  <scstep>
   <time name="total">   12.87   12.98</time>
   <energy>
    <i name="e_fr_energy">    -50.95364965 </i>
    <i name="e_wo_entrp">    -50.95364965 </i>
    <i name="e_0_energy">    -50.95364965 </i>
   </energy>
  </scstep>
  <scstep>
   <time name="total">   12.99   13.10</time>
   <energy>
    <i name="e_fr_energy">    -50.95368589 </i>
    <i name="e_wo_entrp">    -50.95368589 </i>
    <i name="e_0_energy">    -50.95368589 </i>
   </energy>
  </scstep>
  <scstep>
   <time name="total">   13.00   13.11</time>
   <energy>
    <i name="e_fr_energy">    -50.95364312 </i>
    <i name="e_wo_entrp">    -50.95364312 </i>
    <i name="e_0_energy">    -50.95364312 </i>
   </energy>
  </scstep>
  <scstep>
   <time name="total">   13.08   13.19</time>
   <energy>
    <i name="e_fr_energy">    -50.95362300 </i>
    <i name="e_wo_entrp">    -50.95362300 </i>
    <i name="e_0_energy">    -50.95362300 </i>
   </energy>
  </scstep>
  <scstep>
   <time name="total">   13.09   13.20</time>
   <energy>
    <i name="e_fr_energy">    -50.95371960 </i>
    <i name="e_wo_entrp">    -50.95371960 </i>
    <i name="e_0_energy">    -50.95371960 </i>
   </energy>
  </scstep>
  <scstep>
   <time name="total">   13.05   13.16</time>
   <energy>
    <i name="e_fr_energy">    -50.95369774 </i>
    <i name="e_wo_entrp">    -50.95369774 </i>
    <i name="e_0_energy">    -50.95369774 </i>
   </energy>
  </scstep>
  <scstep>
   <time name="total">   13.10   13.20</time>
   <energy>
    <i name="e_fr_energy">    -50.95375570 </i>
    <i name="e_wo_entrp">    -50.95375570 </i>
    <i name="e_0_energy">    -50.95375570 </i>
   </energy>
  </scstep>
  <scstep>
   <time name="total">   13.07   13.18</time>
   <energy>
    <i name="e_fr_energy">    -50.95367848 </i>
    <i name="e_wo_entrp">    -50.95367848 </i>
    <i name="e_0_energy">    -50.95367848 </i>
   </energy>
  </scstep>
  <scstep>
   <time name="total">   13.07   13.18</time>
   <energy>
    <i name="e_fr_energy">    -50.95367902 </i>
    <i name="e_wo_entrp">    -50.95367902 </i>
    <i name="e_0_energy">    -50.95367902 </i>
   </energy>
  </scstep>
  <scstep>
   <time name="total">   13.15   13.26</time>
   <energy>
    <i name="e_fr_energy">    -50.95367666 </i>
    <i name="e_wo_entrp">    -50.95367666 </i>
    <i name="e_0_energy">    -50.95367666 </i>
   </energy>
  </scstep>
  <scstep>
   <time name="total">   13.13   13.24</time>
   <energy>
    <i name="e_fr_energy">    -50.95371826 </i>
    <i name="e_wo_entrp">    -50.95371826 </i>
    <i name="e_0_energy">    -50.95371826 </i>
   </energy>
  </scstep>
  <scstep>
   <time name="total">   13.28   13.39</time>
   <energy>
    <i name="e_fr_energy">    -50.95367526 </i>
    <i name="e_wo_entrp">    -50.95367526 </i>
    <i name="e_0_energy">    -50.95367526 </i>
   </energy>
  </scstep>
  <scstep>
   <time name="total">    8.59    8.67</time>
   <energy>
    <i name="e_fr_energy">    -57.18037198 </i>
    <i name="e_wo_entrp">    -57.18037198 </i>
    <i name="e_0_energy">    -57.18037198 </i>
   </energy>
  </scstep>
  <scstep>
   <time name="total">    9.34    9.42</time>
   <energy>
    <i name="e_fr_energy">    -50.61762646 </i>
    <i name="e_wo_entrp">    -50.61762646 </i>
    <i name="e_0_energy">    -50.61762646 </i>
   </energy>
  </scstep>
  <scstep>
   <time name="total">    9.90    9.98</time>
   <energy>
    <i name="e_fr_energy">    -51.07336382 </i>
    <i name="e_wo_entrp">    -51.07336382 </i>
    <i name="e_0_energy">    -51.07336382 </i>
   </energy>
  </scstep>
  <scstep>
   <time name="total">   10.03   10.11</time>
   <energy>
    <i name="e_fr_energy">    -51.46579603 </i>
    <i name="e_wo_entrp">    -51.46579603 </i>
    <i name="e_0_energy">    -51.46579603 </i>
   </energy>
  </scstep>
  <scstep>
   <time name="total">   11.49   11.58</time>
   <energy>
    <i name="e_fr_energy">    -51.53618989 </i>
    <i name="e_wo_entrp">    -51.53618989 </i>
    <i name="e_0_energy">    -51.53618989 </i>
   </energy>
  </scstep>
  <scstep>
   <time name="total">   11.23   11.33</time>
   <energy>
    <i name="e_fr_energy">    -51.51891187 </i>
    <i name="e_wo_entrp">    -51.51891187 </i>
    <i name="e_0_energy">    -51.51891187 </i>
   </energy>
  </scstep>
  <scstep>
   <time name="total">   11.94   12.04</time>
   <energy>
    <i name="e_fr_energy">    -51.50068406 </i>
    <i name="e_wo_entrp">    -51.50068406 </i>
    <i name="e_0_energy">    -51.50068406 </i>
   </energy>
  </scstep>
  <scstep>
   <time name="total">   11.83   11.93</time>
   <energy>
    <i name="e_fr_energy">    -51.49462313 </i>
    <i name="e_wo_entrp">    -51.49462313 </i>
    <i name="e_0_energy">    -51.49462313 </i>
   </energy>
  </scstep>
  <scstep>
   <time name="total">   12.32   12.43</time>
   <energy>
    <i name="e_fr_energy">    -51.49785444 </i>
    <i name="e_wo_entrp">    -51.49785444 </i>
    <i name="e_0_energy">    -51.49785444 </i>
   </energy>
  </scstep>
  <scstep>
   <time name="total">   11.69   11.78</time>
   <energy>
    <i name="e_fr_energy">    -51.49992935 </i>
    <i name="e_wo_entrp">    -51.49992935 </i>
    <i name="e_0_energy">    -51.49992935 </i>
   </energy>
  </scstep>
  <scstep>
   <time name="total">   12.21   12.31</time>
   <energy>
    <i name="e_fr_energy">    -51.49898868 </i>
    <i name="e_wo_entrp">    -51.49898868 </i>
    <i name="e_0_energy">    -51.49898868 </i>
   </energy>
  </scstep>
  <scstep>
   <time name="total">   12.29   12.39</time>
   <energy>
    <i name="e_fr_energy">    -51.49671864 </i>
    <i name="e_wo_entrp">    -51.49671864 </i>
    <i name="e_0_energy">    -51.49671864 </i>
   </energy>
  </scstep>
  <scstep>
   <time name="total">   12.50   12.60</time>
   <energy>
    <i name="e_fr_energy">    -51.49563514 </i>
    <i name="e_wo_entrp">    -51.49563514 </i>
    <i name="e_0_energy">    -51.49563514 </i>
   </energy>
  </scstep>
  <scstep>
   <time name="total">   12.57   12.68</time>
   <energy>
    <i name="e_fr_energy">    -51.49520668 </i>
    <i name="e_wo_entrp">    -51.49520668 </i>
    <i name="e_0_energy">    -51.49520668 </i>
   </energy>
  </scstep>
  <scstep>
   <time name="total">   12.75   12.86</time>
   <energy>
    <i name="e_fr_energy">    -51.49509196 </i>
    <i name="e_wo_entrp">    -51.49509196 </i>
    <i name="e_0_energy">    -51.49509196 </i>
   </energy>
  </scstep>
  <scstep>
   <time name="total">   12.79   12.90</time>
   <energy>
    <i name="e_fr_energy">    -51.49517010 </i>
    <i name="e_wo_entrp">    -51.49517010 </i>
    <i name="e_0_energy">    -51.49517010 </i>
   </energy>
  </scstep>
  <scstep>
   <time name="total">   12.86   12.96</time>
   <energy>
    <i name="e_fr_energy">    -51.49532511 </i>
    <i name="e_wo_entrp">    -51.49532511 </i>
    <i name="e_0_energy">    -51.49532511 </i>
   </energy>
  </scstep>
  <scstep>
   <time name="total">   12.90   13.01</time>
   <energy>
    <i name="e_fr_energy">    -51.49527211 </i>
    <i name="e_wo_entrp">    -51.49527211 </i>
    <i name="e_0_energy">    -51.49527211 </i>
   </energy>
  </scstep>
  <scstep>
   <time name="total">   12.93   13.04</time>
   <energy>
    <i name="e_fr_energy">    -51.49522614 </i>
    <i name="e_wo_entrp">    -51.49522614 </i>
    <i name="e_0_energy">    -51.49522614 </i>
   </energy>
  </scstep>
  <scstep>
   <time name="total">   13.02   13.13</time>
   <energy>
    <i name="e_fr_energy">    -51.49524469 </i>
    <i name="e_wo_entrp">    -51.49524469 </i>
    <i name="e_0_energy">    -51.49524469 </i>
   </energy>
  </scstep>
  <scstep>
   <time name="total">   13.02   13.13</time>
   <energy>
    <i name="e_fr_energy">    -51.49527252 </i>
    <i name="e_wo_entrp">    -51.49527252 </i>
    <i name="e_0_energy">    -51.49527252 </i>
   </energy>
  </scstep>
  <scstep>
   <time name="total">   13.04   13.15</time>
   <energy>
    <i name="e_fr_energy">    -51.49528738 </i>
    <i name="e_wo_entrp">    -51.49528738 </i>
    <i name="e_0_energy">    -51.49528738 </i>
   </energy>
  </scstep>
  <scstep>
   <time name="total">   13.05   13.16</time>
   <energy>
    <i name="e_fr_energy">    -51.49528305 </i>
    <i name="e_wo_entrp">    -51.49528305 </i>
    <i name="e_0_energy">    -51.49528305 </i>
   </energy>
  </scstep>
  <scstep>
   <time name="total">   13.07   13.18</time>
   <energy>
    <i name="e_fr_energy">    -51.49525206 </i>
    <i name="e_wo_entrp">    -51.49525206 </i>
    <i name="e_0_energy">    -51.49525206 </i>
   </energy>
  </scstep>
  <scstep>
   <time name="total">   13.08   13.19</time>
   <energy>
    <i name="e_fr_energy">    -51.49521631 </i>
    <i name="e_wo_entrp">    -51.49521631 </i>
    <i name="e_0_energy">    -51.49521631 </i>
   </energy>
  </scstep>
  <scstep>
   <time name="total">   13.12   13.23</time>
   <energy>
    <i name="e_fr_energy">    -51.49531096 </i>
    <i name="e_wo_entrp">    -51.49531096 </i>
    <i name="e_0_energy">    -51.49531096 </i>
   </energy>
  </scstep>
  <scstep>
   <time name="total">    8.81    8.89</time>
   <energy>
    <i name="e_fr_energy">    -57.59712393 </i>
    <i name="e_wo_entrp">    -57.59712393 </i>
    <i name="e_0_energy">    -57.59712393 </i>
   </energy>
  </scstep>
  <scstep>
   <time name="total">    9.29    9.36</time>
   <energy>
    <i name="e_fr_energy">    -51.01031137 </i>
    <i name="e_wo_entrp">    -51.01031137 </i>
    <i name="e_0_energy">    -51.01031137 </i>
   </energy>
  </scstep>
  <scstep>
   <time name="total">   10.07   10.15</time>
   <energy>
    <i name="e_fr_energy">    -51.18382393 </i>
    <i name="e_wo_entrp">    -51.18382393 </i>
    <i name="e_0_energy">    -51.18382393 </i>
   </energy>
  </scstep>
  <scstep>
   <time name="total">   10.52   10.61</time>
   <energy>
    <i name="e_fr_energy">    -51.11455861 </i>
    <i name="e_wo_entrp">    -51.11455861 </i>
    <i name="e_0_energy">    -51.11455861 </i>
   </energy>
  </scstep>
  <scstep>
   <time name="total">   11.53   11.62</time>
   <energy>
    <i name="e_fr_energy">    -51.11036030 </i>
    <i name="e_wo_entrp">    -51.11036030 </i>
    <i name="e_0_energy">    -51.11036030 </i>
   </energy>
  </scstep>
  <scstep>
   <time name="total">   11.91   12.01</time>
   <energy>
    <i name="e_fr_energy">    -51.11815849 </i>
    <i name="e_wo_entrp">    -51.11815849 </i>
    <i name="e_0_energy">    -51.11815849 </i>
   </energy>
  </scstep>
  <scstep>
   <time name="total">   12.28   12.38</time>
   <energy>
    <i name="e_fr_energy">    -51.12492911 </i>
    <i name="e_wo_entrp">    -51.12492911 </i>
    <i name="e_0_energy">    -51.12492911 </i>
   </energy>
  </scstep>
  <scstep>
   <time name="total">   11.82   11.91</time>
   <energy>
    <i name="e_fr_energy">    -51.12235035 </i>
    <i name="e_wo_entrp">    -51.12235035 </i>
    <i name="e_0_energy">    -51.12235035 </i>
   </energy>
  </scstep>
  <scstep>
   <time name="total">   12.51   12.61</time>
   <energy>
    <i name="e_fr_energy">    -51.12262127 </i>
    <i name="e_wo_entrp">    -51.12262127 </i>
    <i name="e_0_energy">    -51.12262127 </i>
   </energy>
  </scstep>
  <scstep>
   <time name="total">   12.59   12.70</time>
   <energy>
    <i name="e_fr_energy">    -51.12236262 </i>
    <i name="e_wo_entrp">    -51.12236262 </i>
    <i name="e_0_energy">    -51.12236262 </i>
   </energy>
  </scstep>
  <scstep>
   <time name="total">   12.69   12.80</time>
   <energy>
    <i name="e_fr_energy">    -51.12181199 </i>
    <i name="e_wo_entrp">    -51.12181199 </i>
    <i name="e_0_energy">    -51.12181199 </i>
   </energy>
  </scstep>
  <scstep>
   <time name="total">   12.91   13.01</time>
   <energy>
    <i name="e_fr_energy">    -51.12166144 </i>
    <i name="e_wo_entrp">    -51.12166144 </i>
    <i name="e_0_energy">    -51.12166144 </i>
   </energy>
  </scstep>
  <scstep>
   <time name="total">   12.82   12.92</time>
   <energy>
    <i name="e_fr_energy">    -51.12246367 </i>
    <i name="e_wo_entrp">    -51.12246367 </i>
    <i name="e_0_energy">    -51.12246367 </i>
   </energy>
  </scstep>
  <scstep>
   <time name="total">   13.00   13.11</time>
   <energy>
    <i name="e_fr_energy">    -51.12225044 </i>
    <i name="e_wo_entrp">    -51.12225044 </i>
    <i name="e_0_energy">    -51.12225044 </i>
   </energy>
  </scstep>
  <scstep>
   <time name="total">   12.99   13.10</time>
   <energy>
    <i name="e_fr_energy">    -51.12194322 </i>
    <i name="e_wo_entrp">    -51.12194322 </i>
    <i name="e_0_energy">    -51.12194322 </i>
   </energy>
  </scstep>
  <scstep>
   <time name="total">   13.01   13.11</time>
   <energy>
    <i name="e_fr_energy">    -51.12187794 </i>
    <i name="e_wo_entrp">    -51.12187794 </i>
    <i name="e_0_energy">    -51.12187794 </i>
   </energy>
  </scstep>
  <scstep>
   <time name="total">   13.02   13.12</time>
   <energy>
    <i name="e_fr_energy">    -51.12195974 </i>
    <i name="e_wo_entrp">    -51.12195974 </i>
    <i name="e_0_energy">    -51.12195974 </i>
   </energy>
  </scstep>
  <scstep>
   <time name="total">   13.05   13.16</time>
   <energy>
    <i name="e_fr_energy">    -51.12195226 </i>
    <i name="e_wo_entrp">    -51.12195226 </i>
    <i name="e_0_energy">    -51.12195226 </i>
   </energy>
  </scstep>
  <scstep>
   <time name="total">   13.03   13.14</time>
   <energy>
    <i name="e_fr_energy">    -51.12189028 </i>
    <i name="e_wo_entrp">    -51.12189028 </i>
    <i name="e_0_energy">    -51.12189028 </i>
   </energy>
  </scstep>
  <scstep>
   <time name="total">   13.07   13.18</time>
   <energy>
    <i name="e_fr_energy">    -51.12197663 </i>
    <i name="e_wo_entrp">    -51.12197663 </i>
    <i name="e_0_energy">    -51.12197663 </i>
   </energy>
  </scstep>
  <scstep>
   <time name="total">   13.07   13.17</time>
   <energy>
    <i name="e_fr_energy">    -51.12194817 </i>
    <i name="e_wo_entrp">    -51.12194817 </i>
    <i name="e_0_energy">    -51.12194817 </i>
   </energy>
  </scstep>
  <scstep>
   <time name="total">   13.08   13.19</time>
   <energy>
    <i name="e_fr_energy">    -51.12189559 </i>
    <i name="e_wo_entrp">    -51.12189559 </i>
    <i name="e_0_energy">    -51.12189559 </i>
   </energy>
  </scstep>
  <scstep>
   <time name="total">   13.09   13.20</time>
   <energy>
    <i name="e_fr_energy">    -51.12204966 </i>
    <i name="e_wo_entrp">    -51.12204966 </i>
    <i name="e_0_energy">    -51.12204966 </i>
   </energy>
  </scstep>
  <scstep>
   <time name="total">   13.11   13.22</time>
   <energy>
    <i name="e_fr_energy">    -51.12226732 </i>
    <i name="e_wo_entrp">    -51.12226732 </i>
    <i name="e_0_energy">    -51.12226732 </i>
   </energy>
  </scstep>
  <scstep>
   <time name="total">   13.14   13.25</time>
   <energy>
    <i name="e_fr_energy">    -51.12187364 </i>
    <i name="e_wo_entrp">    -51.12187364 </i>
    <i name="e_0_energy">    -51.12187364 </i>
   </energy>
  </scstep>
  <scstep>
   <time name="total">   13.09   13.20</time>
   <energy>
    <i name="e_fr_energy">    -51.12180993 </i>
    <i name="e_wo_entrp">    -51.12180993 </i>
    <i name="e_0_energy">    -51.12180993 </i>
   </energy>
  </scstep>
  <scstep>
   <time name="total">   13.12   13.23</time>
   <energy>
    <i name="e_fr_energy">    -51.12217754 </i>
    <i name="e_wo_entrp">    -51.12217754 </i>
    <i name="e_0_energy">    -51.12217754 </i>
   </energy>
  </scstep>
  <scstep>
   <time name="total">   13.16   13.27</time>
   <energy>
    <i name="e_fr_energy">    -51.12214942 </i>
    <i name="e_wo_entrp">    -51.12214942 </i>
    <i name="e_0_energy">    -51.12214942 </i>
   </energy>
  </scstep>
  <scstep>
   <time name="total">   13.17   13.28</time>
   <energy>
    <i name="e_fr_energy">    -51.12197216 </i>
    <i name="e_wo_entrp">    -51.12197216 </i>
    <i name="e_0_energy">    -51.12197216 </i>
   </energy>
  </scstep>
  <scstep>
   <time name="total">   13.18   13.29</time>
   <energy>
    <i name="e_fr_energy">    -51.12197874 </i>
    <i name="e_wo_entrp">    -51.12197874 </i>
    <i name="e_0_energy">    -51.12197874 </i>
   </energy>
  </scstep>
  <scstep>
   <time name="total">    8.85    8.92</time>
   <energy>
    <i name="e_fr_energy">    -56.81203535 </i>
    <i name="e_wo_entrp">    -56.81203535 </i>
    <i name="e_0_energy">    -56.81203535 </i>
   </energy>
  </scstep>
  <scstep>
   <time name="total">    9.43    9.51</time>
   <energy>
    <i name="e_fr_energy">    -50.83101420 </i>
    <i name="e_wo_entrp">    -50.83101420 </i>
    <i name="e_0_energy">    -50.83101420 </i>
   </energy>
  </scstep>
  <scstep>
   <time name="total">   10.41   10.50</time>
   <energy>
    <i name="e_fr_energy">    -51.01722625 </i>
    <i name="e_wo_entrp">    -51.01722625 </i>
    <i name="e_0_energy">    -51.01722625 </i>
   </energy>
  </scstep>
  <scstep>
   <time name="total">   10.47   10.56</time>
   <energy>
    <i name="e_fr_energy">    -50.94765766 </i>
    <i name="e_wo_entrp">    -50.94765766 </i>
    <i name="e_0_energy">    -50.94765766 </i>
   </energy>
  </scstep>
  <scstep>
   <time name="total">   11.79   11.89</time>
   <energy>
    <i name="e_fr_energy">    -50.94027490 </i>
    <i name="e_wo_entrp">    -50.94027490 </i>
    <i name="e_0_energy">    -50.94027490 </i>
   </energy>
  </scstep>
  <scstep>
   <time name="total">   12.10   12.20</time>
   <energy>
    <i name="e_fr_energy">    -50.94685290 </i>
    <i name="e_wo_entrp">    -50.94685290 </i>
    <i name="e_0_energy">    -50.94685290 </i>
   </energy>
  </scstep>
  <scstep>
   <time name="total">   12.40   12.50</time>
   <energy>
    <i name="e_fr_energy">    -50.95267999 </i>
    <i name="e_wo_entrp">    -50.95267999 </i>
    <i name="e_0_energy">    -50.95267999 </i>
   </energy>
  </scstep>
  <scstep>
   <time name="total">   11.90   12.00</time>
   <energy>
    <i name="e_fr_energy">    -50.95371985 </i>
    <i name="e_wo_entrp">    -50.95371985 </i>
    <i name="e_0_energy">    -50.95371985 </i>
   </energy>
  </scstep>
  <scstep>
   <time name="total">   12.52   12.63</time>
   <energy>
    <i name="e_fr_energy">    -50.95371880 </i>
    <i name="e_wo_entrp">    -50.95371880 </i>
    <i name="e_0_energy">    -50.95371880 </i>
   </energy>
  </scstep>
  <scstep>
   <time name="total">   12.57   12.68</time>
   <energy>
    <i name="e_fr_energy">    -50.95383938 </i>
    <i name="e_wo_entrp">    -50.95383938 </i>
    <i name="e_0_energy">    -50.95383938 </i>
   </energy>
  </scstep>
  <scstep>
   <time name="total">   12.70   12.81</time>
   <energy>
    <i name="e_fr_energy">    -50.95382922 </i>
    <i name="e_wo_entrp">    -50.95382922 </i>
    <i name="e_0_energy">    -50.95382922 </i>
   </energy>
  </scstep>
  <scstep>
   <time name="total">   12.68   12.78</time>
   <energy>
    <i name="e_fr_energy">    -50.95353151 </i>
    <i name="e_wo_entrp">    -50.95353151 </i>
    <i name="e_0_energy">    -50.95353151 </i>
   </energy>
  </scstep>
  <scstep>
   <time name="total">   12.78   12.88</time>
   <energy>
    <i name="e_fr_energy">    -50.95363560 </i>
    <i name="e_wo_entrp">    -50.95363560 </i>
    <i name="e_0_energy">    -50.95363560 </i>
   </energy>
  </scstep>
  <scstep>
   <time name="total">   12.89   12.99</time>
   <energy>
    <i name="e_fr_energy">    -50.95368111 </i>
    <i name="e_wo_entrp">    -50.95368111 </i>
    <i name="e_0_energy">    -50.95368111 </i>
   </energy>
  </scstep>
  <scstep>
   <time name="total">   12.92   13.03</time>
   <energy>
    <i name="e_fr_energy">    -50.95363644 </i>
    <i name="e_wo_entrp">    -50.95363644 </i>
    <i name="e_0_energy">    -50.95363644 </i>
   </energy>
  </scstep>
  <scstep>
   <time name="total">   12.95   13.06</time>
   <energy>
    <i name="e_fr_energy">    -50.95360562 </i>
    <i name="e_wo_entrp">    -50.95360562 </i>
    <i name="e_0_energy">    -50.95360562 </i>
   </energy>
  </scstep>
  <scstep>
   <time name="total">   12.92   13.03</time>
   <energy>
    <i name="e_fr_energy">    -50.95368259 </i>
    <i name="e_wo_entrp">    -50.95368259 </i>
    <i name="e_0_energy">    -50.95368259 </i>
   </energy>
  </scstep>
  <scstep>
   <time name="total">   12.98   13.08</time>
   <energy>
    <i name="e_fr_energy">    -50.95370212 </i>
    <i name="e_wo_entrp">    -50.95370212 </i>
    <i name="e_0_energy">    -50.95370212 </i>
   </energy>
  </scstep>
  <scstep>
   <time name="total">   12.96   13.07</time>
   <energy>
    <i name="e_fr_energy">    -50.95378634 </i>
    <i name="e_wo_entrp">    -50.95378634 </i>
    <i name="e_0_energy">    -50.95378634 </i>
   </energy>
  </scstep>
  <scstep>
   <time name="total">   13.21   13.33</time>
   <energy>
    <i name="e_fr_energy">    -50.95367691 </i>
    <i name="e_wo_entrp">    -50.95367691 </i>
    <i name="e_0_energy">    -50.95367691 </i>
   </energy>
  </scstep>
  <scstep>
   <time name="total">   13.07   13.17</time>
   <energy>
    <i name="e_fr_energy">    -50.95366052 </i>
    <i name="e_wo_entrp">    -50.95366052 </i>
    <i name="e_0_energy">    -50.95366052 </i>
   </energy>
  </scstep>
  <scstep>
   <time name="total">   13.06   13.17</time>
   <energy>
    <i name="e_fr_energy">    -50.95367670 </i>
    <i name="e_wo_entrp">    -50.95367670 </i>
    <i name="e_0_energy">    -50.95367670 </i>
   </energy>
  </scstep>
  <scstep>
   <time name="total">   13.06   13.17</time>
   <energy>
    <i name="e_fr_energy">    -50.95370075 </i>
    <i name="e_wo_entrp">    -50.95370075 </i>
    <i name="e_0_energy">    -50.95370075 </i>
   </energy>
  </scstep>
  <scstep>
   <time name="total">   13.09   13.20</time>
   <energy>
    <i name="e_fr_energy">    -50.95365456 </i>
    <i name="e_wo_entrp">    -50.95365456 </i>
    <i name="e_0_energy">    -50.95365456 </i>
   </energy>
  </scstep>
  <scstep>
   <time name="total">   13.11   13.22</time>
   <energy>
    <i name="e_fr_energy">    -50.95367343 </i>
    <i name="e_wo_entrp">    -50.95367343 </i>
    <i name="e_0_energy">    -50.95367343 </i>
   </energy>
  </scstep>
  <scstep>
   <time name="total">    8.56    8.63</time>
   <energy>
    <i name="e_fr_energy">    -57.18037524 </i>
    <i name="e_wo_entrp">    -57.18037524 </i>
    <i name="e_0_energy">    -57.18037524 </i>
   </energy>
  </scstep>
  <scstep>
   <time name="total">    9.36    9.44</time>
   <energy>
    <i name="e_fr_energy">    -50.61787800 </i>
    <i name="e_wo_entrp">    -50.61787800 </i>
    <i name="e_0_energy">    -50.61787800 </i>
   </energy>
  </scstep>
  <scstep>
   <time name="total">    9.89    9.98</time>
   <energy>
    <i name="e_fr_energy">    -51.07215484 </i>
    <i name="e_wo_entrp">    -51.07215484 </i>
    <i name="e_0_energy">    -51.07215484 </i>
   </energy>
  </scstep>
  <scstep>
   <time name="total">   10.05   10.14</time>
   <energy>
    <i name="e_fr_energy">    -51.46500496 </i>
    <i name="e_wo_entrp">    -51.46500496 </i>
    <i name="e_0_energy">    -51.46500496 </i>
   </energy>
  </scstep>
  <scstep>
   <time name="total">   11.50   11.59</time>
   <energy>
    <i name="e_fr_energy">    -51.53556806 </i>
    <i name="e_wo_entrp">    -51.53556806 </i>
    <i name="e_0_energy">    -51.53556806 </i>
   </energy>
  </scstep>
  <scstep>
   <time name="total">   11.23   11.33</time>
   <energy>
    <i name="e_fr_energy">    -51.51856919 </i>
    <i name="e_wo_entrp">    -51.51856919 </i>
    <i name="e_0_energy">    -51.51856919 </i>
   </energy>
  </scstep>
  <scstep>
   <time name="total">   11.92   12.02</time>
   <energy>
    <i name="e_fr_energy">    -51.50053546 </i>
    <i name="e_wo_entrp">    -51.50053546 </i>
    <i name="e_0_energy">    -51.50053546 </i>
   </energy>
  </scstep>
  <scstep>
   <time name="total">   11.86   11.95</time>
   <energy>
    <i name="e_fr_energy">    -51.49455585 </i>
    <i name="e_wo_entrp">    -51.49455585 </i>
    <i name="e_0_energy">    -51.49455585 </i>
   </energy>
  </scstep>
  <scstep>
   <time name="total">   12.33   12.43</time>
   <energy>
    <i name="e_fr_energy">    -51.49781260 </i>
    <i name="e_wo_entrp">    -51.49781260 </i>
    <i name="e_0_energy">    -51.49781260 </i>
   </energy>
  </scstep>
  <scstep>
   <time name="total">   11.71   11.81</time>
   <energy>
    <i name="e_fr_energy">    -51.49990739 </i>
    <i name="e_wo_entrp">    -51.49990739 </i>
    <i name="e_0_energy">    -51.49990739 </i>
   </energy>
  </scstep>
  <scstep>
   <time name="total">   12.25   12.35</time>
   <energy>
    <i name="e_fr_energy">    -51.49897664 </i>
    <i name="e_wo_entrp">    -51.49897664 </i>
    <i name="e_0_energy">    -51.49897664 </i>
   </energy>
  </scstep>
  <scstep>
   <time name="total">   12.25   12.35</time>
   <energy>
    <i name="e_fr_energy">    -51.49670522 </i>
    <i name="e_wo_entrp">    -51.49670522 </i>
    <i name="e_0_energy">    -51.49670522 </i>
   </energy>
  </scstep>
  <scstep>
   <time name="total">   12.53   12.63</time>
   <energy>
    <i name="e_fr_energy">    -51.49562431 </i>
    <i name="e_wo_entrp">    -51.49562431 </i>
    <i name="e_0_energy">    -51.49562431 </i>
   </energy>
  </scstep>
  <scstep>
   <time name="total">   12.61   12.71</time>
   <energy>
    <i name="e_fr_energy">    -51.49511664 </i>
    <i name="e_wo_entrp">    -51.49511664 </i>
    <i name="e_0_energy">    -51.49511664 </i>
   </energy>
  </scstep>
  <scstep>
   <time name="total">   12.78   12.88</time>
   <energy>
    <i name="e_fr_energy">    -51.49507108 </i>
    <i name="e_wo_entrp">    -51.49507108 </i>
    <i name="e_0_energy">    -51.49507108 </i>
   </energy>
  </scstep>
  <scstep>
   <time name="total">   12.83   12.94</time>
   <energy>
    <i name="e_fr_energy">    -51.49515118 </i>
    <i name="e_wo_entrp">    -51.49515118 </i>
    <i name="e_0_energy">    -51.49515118 </i>
   </energy>
  </scstep>
  <scstep>
   <time name="total">   12.87   12.98</time>
   <energy>
    <i name="e_fr_energy">    -51.49524868 </i>
    <i name="e_wo_entrp">    -51.49524868 </i>
    <i name="e_0_energy">    -51.49524868 </i>
   </energy>
  </scstep>
  <scstep>
   <time name="total">   12.94   13.05</time>
   <energy>
    <i name="e_fr_energy">    -51.49525852 </i>
    <i name="e_wo_entrp">    -51.49525852 </i>
    <i name="e_0_energy">    -51.49525852 </i>
   </energy>
  </scstep>
  <scstep>
   <time name="total">   12.98   13.09</time>
   <energy>
    <i name="e_fr_energy">    -51.49515624 </i>
    <i name="e_wo_entrp">    -51.49515624 </i>
    <i name="e_0_energy">    -51.49515624 </i>
   </energy>
  </scstep>
  <scstep>
   <time name="total">   13.02   13.13</time>
   <energy>
    <i name="e_fr_energy">    -51.49524058 </i>
    <i name="e_wo_entrp">    -51.49524058 </i>
    <i name="e_0_energy">    -51.49524058 </i>
   </energy>
  </scstep>
  <scstep>
   <time name="total">   13.03   13.13</time>
   <energy>
    <i name="e_fr_energy">    -51.49523067 </i>
    <i name="e_wo_entrp">    -51.49523067 </i>
    <i name="e_0_energy">    -51.49523067 </i>
   </energy>
  </scstep>
  <scstep>
   <time name="total">   13.02   13.13</time>
   <energy>
    <i name="e_fr_energy">    -51.49521906 </i>
    <i name="e_wo_entrp">    -51.49521906 </i>
    <i name="e_0_energy">    -51.49521906 </i>
   </energy>
  </scstep>
  <scstep>
   <time name="total">   13.03   13.14</time>
   <energy>
    <i name="e_fr_energy">    -51.49520817 </i>
    <i name="e_wo_entrp">    -51.49520817 </i>
    <i name="e_0_energy">    -51.49520817 </i>
   </energy>
  </scstep>
  <scstep>
   <time name="total">   13.06   13.17</time>
   <energy>
    <i name="e_fr_energy">    -51.49521221 </i>
    <i name="e_wo_entrp">    -51.49521221 </i>
    <i name="e_0_energy">    -51.49521221 </i>
   </energy>
  </scstep>
  <scstep>
   <time name="total">   13.06   13.16</time>
   <energy>
    <i name="e_fr_energy">    -51.49522616 </i>
    <i name="e_wo_entrp">    -51.49522616 </i>
    <i name="e_0_energy">    -51.49522616 </i>
   </energy>
  </scstep>
  <scstep>
   <time name="total">   13.09   13.20</time>
   <energy>
    <i name="e_fr_energy">    -51.49526584 </i>
    <i name="e_wo_entrp">    -51.49526584 </i>
    <i name="e_0_energy">    -51.49526584 </i>
   </energy>
  </scstep>
  <scstep>
   <time name="total">    8.81    8.88</time>
   <energy>
    <i name="e_fr_energy">    -57.62965009 </i>
    <i name="e_wo_entrp">    -57.62965009 </i>
    <i name="e_0_energy">    -57.62965009 </i>
   </energy>
  </scstep>
  <scstep>
   <time name="total">    9.25    9.33</time>
   <energy>
    <i name="e_fr_energy">    -51.01131260 </i>
    <i name="e_wo_entrp">    -51.01131260 </i>
    <i name="e_0_energy">    -51.01131260 </i>
   </energy>
  </scstep>
  <scstep>
   <time name="total">   10.08   10.16</time>
   <energy>
    <i name="e_fr_energy">    -51.18084023 </i>
    <i name="e_wo_entrp">    -51.18084023 </i>
    <i name="e_0_energy">    -51.18084023 </i>
   </energy>
  </scstep>
  <scstep>
   <time name="total">   10.56   10.65</time>
   <energy>
    <i name="e_fr_energy">    -51.11400647 </i>
    <i name="e_wo_entrp">    -51.11400647 </i>
    <i name="e_0_energy">    -51.11400647 </i>
   </energy>
  </scstep>
  <scstep>
   <time name="total">   11.52   11.62</time>
   <energy>
    <i name="e_fr_energy">    -51.10941706 </i>
    <i name="e_wo_entrp">    -51.10941706 </i>
    <i name="e_0_energy">    -51.10941706 </i>
   </energy>
  </scstep>
  <scstep>
   <time name="total">   11.91   12.01</time>
   <energy>
    <i name="e_fr_energy">    -51.11749584 </i>
    <i name="e_wo_entrp">    -51.11749584 </i>
    <i name="e_0_energy">    -51.11749584 </i>
   </energy>
  </scstep>
  <scstep>
   <time name="total">   12.28   12.38</time>
   <energy>
    <i name="e_fr_energy">    -51.12462742 </i>
    <i name="e_wo_entrp">    -51.12462742 </i>
    <i name="e_0_energy">    -51.12462742 </i>
   </energy>
  </scstep>
  <scstep>
   <time name="total">   11.83   11.93</time>
   <energy>
    <i name="e_fr_energy">    -51.12214478 </i>
    <i name="e_wo_entrp">    -51.12214478 </i>
    <i name="e_0_energy">    -51.12214478 </i>
   </energy>
  </scstep>
  <scstep>
   <time name="total">   12.48   12.58</time>
   <energy>
    <i name="e_fr_energy">    -51.12256535 </i>
    <i name="e_wo_entrp">    -51.12256535 </i>
    <i name="e_0_energy">    -51.12256535 </i>
   </energy>
  </scstep>
  <scstep>
   <time name="total">   12.57   12.67</time>
   <energy>
    <i name="e_fr_energy">    -51.12226874 </i>
    <i name="e_wo_entrp">    -51.12226874 </i>
    <i name="e_0_energy">    -51.12226874 </i>
   </energy>
  </scstep>
  <scstep>
   <time name="total">   12.63   12.74</time>
   <energy>
    <i name="e_fr_energy">    -51.12177856 </i>
    <i name="e_wo_entrp">    -51.12177856 </i>
    <i name="e_0_energy">    -51.12177856 </i>
   </energy>
  </scstep>
  <scstep>
   <time name="total">   12.71   12.82</time>
   <energy>
    <i name="e_fr_energy">    -51.12155548 </i>
    <i name="e_wo_entrp">    -51.12155548 </i>
    <i name="e_0_energy">    -51.12155548 </i>
   </energy>
  </scstep>
  <scstep>
   <time name="total">   12.74   12.84</time>
   <energy>
    <i name="e_fr_energy">    -51.12238931 </i>
    <i name="e_wo_entrp">    -51.12238931 </i>
    <i name="e_0_energy">    -51.12238931 </i>
   </energy>
  </scstep>
  <scstep>
   <time name="total">   12.89   13.00</time>
   <energy>
    <i name="e_fr_energy">    -51.12217845 </i>
    <i name="e_wo_entrp">    -51.12217845 </i>
    <i name="e_0_energy">    -51.12217845 </i>
   </energy>
  </scstep>
  <scstep>
   <time name="total">   12.91   13.02</time>
   <energy>
    <i name="e_fr_energy">    -51.12188709 </i>
    <i name="e_wo_entrp">    -51.12188709 </i>
    <i name="e_0_energy">    -51.12188709 </i>
   </energy>
  </scstep>
  <scstep>
   <time name="total">   12.96   13.07</time>
   <energy>
    <i name="e_fr_energy">    -51.12178783 </i>
    <i name="e_wo_entrp">    -51.12178783 </i>
    <i name="e_0_energy">    -51.12178783 </i>
   </energy>
  </scstep>
  <scstep>
   <time name="total">   12.94   13.04</time>
   <energy>
    <i name="e_fr_energy">    -51.12194077 </i>
    <i name="e_wo_entrp">    -51.12194077 </i>
    <i name="e_0_energy">    -51.12194077 </i>
   </energy>
  </scstep>
  <scstep>
   <time name="total">   13.00   13.10</time>
   <energy>
    <i name="e_fr_energy">    -51.12187460 </i>
    <i name="e_wo_entrp">    -51.12187460 </i>
    <i name="e_0_energy">    -51.12187460 </i>
   </energy>
  </scstep>
  <scstep>
   <time name="total">   13.01   13.12</time>
   <energy>
    <i name="e_fr_energy">    -51.12181117 </i>
    <i name="e_wo_entrp">    -51.12181117 </i>
    <i name="e_0_energy">    -51.12181117 </i>
   </energy>
  </scstep>
  <scstep>
   <time name="total">   13.05   13.17</time>
   <energy>
    <i name="e_fr_energy">    -51.12185635 </i>
    <i name="e_wo_entrp">    -51.12185635 </i>
    <i name="e_0_energy">    -51.12185635 </i>
   </energy>
  </scstep>
  <scstep>
   <time name="total">   13.04   13.15</time>
   <energy>
    <i name="e_fr_energy">    -51.12190054 </i>
    <i name="e_wo_entrp">    -51.12190054 </i>
    <i name="e_0_energy">    -51.12190054 </i>
   </energy>
  </scstep>
  <scstep>
   <time name="total">   13.06   13.17</time>
   <energy>
    <i name="e_fr_energy">    -51.12177319 </i>
    <i name="e_wo_entrp">    -51.12177319 </i>
    <i name="e_0_energy">    -51.12177319 </i>
   </energy>
  </scstep>
  <scstep>
   <time name="total">   13.11   13.22</time>
   <energy>
    <i name="e_fr_energy">    -51.12191513 </i>
    <i name="e_wo_entrp">    -51.12191513 </i>
    <i name="e_0_energy">    -51.12191513 </i>
   </energy>
  </scstep>
  <scstep>
   <time name="total">   13.10   13.21</time>
   <energy>
    <i name="e_fr_energy">    -51.12219585 </i>
    <i name="e_wo_entrp">    -51.12219585 </i>
    <i name="e_0_energy">    -51.12219585 </i>
   </energy>
  </scstep>
  <scstep>
   <time name="total">   13.13   13.24</time>
   <energy>
    <i name="e_fr_energy">    -51.12177589 </i>
    <i name="e_wo_entrp">    -51.12177589 </i>
    <i name="e_0_energy">    -51.12177589 </i>
   </energy>
  </scstep>
  <scstep>
   <time name="total">   13.15   13.26</time>
   <energy>
    <i name="e_fr_energy">    -51.12166710 </i>
    <i name="e_wo_entrp">    -51.12166710 </i>
    <i name="e_0_energy">    -51.12166710 </i>
   </energy>
  </scstep>
  <scstep>
   <time name="total">   13.13   13.24</time>
   <energy>
    <i name="e_fr_energy">    -51.12207316 </i>
    <i name="e_wo_entrp">    -51.12207316 </i>
    <i name="e_0_energy">    -51.12207316 </i>
   </energy>
  </scstep>
  <scstep>
   <time name="total">   13.14   13.25</time>
   <energy>
    <i name="e_fr_energy">    -51.12214981 </i>
    <i name="e_wo_entrp">    -51.12214981 </i>
    <i name="e_0_energy">    -51.12214981 </i>
   </energy>
  </scstep>
  <scstep>
   <time name="total">    8.84    8.92</time>
   <energy>
    <i name="e_fr_energy">    -56.85455837 </i>
    <i name="e_wo_entrp">    -56.85455837 </i>
    <i name="e_0_energy">    -56.85455837 </i>
   </energy>
  </scstep>
  <scstep>
   <time name="total">    9.42    9.49</time>
   <energy>
    <i name="e_fr_energy">    -50.83203244 </i>
    <i name="e_wo_entrp">    -50.83203244 </i>
    <i name="e_0_energy">    -50.83203244 </i>
   </energy>
  </scstep>
  <scstep>
   <time name="total">   10.41   10.50</time>
   <energy>
    <i name="e_fr_energy">    -51.01610775 </i>
    <i name="e_wo_entrp">    -51.01610775 </i>
    <i name="e_0_energy">    -51.01610775 </i>
   </energy>
  </scstep>
  <scstep>
   <time name="total">   10.50   10.59</time>
   <energy>
    <i name="e_fr_energy">    -50.94752984 </i>
    <i name="e_wo_entrp">    -50.94752984 </i>
    <i name="e_0_energy">    -50.94752984 </i>
   </energy>
  </scstep>
  <scstep>
   <time name="total">   11.80   11.90</time>
   <energy>
    <i name="e_fr_energy">    -50.94001026 </i>
    <i name="e_wo_entrp">    -50.94001026 </i>
    <i name="e_0_energy">    -50.94001026 </i>
   </energy>
  </scstep>
  <scstep>
   <time name="total">   12.11   12.21</time>
   <energy>
    <i name="e_fr_energy">    -50.94666626 </i>
    <i name="e_wo_entrp">    -50.94666626 </i>
    <i name="e_0_energy">    -50.94666626 </i>
   </energy>
  </scstep>
  <scstep>
   <time name="total">   12.36   12.47</time>
   <energy>
    <i name="e_fr_energy">    -50.95257553 </i>
    <i name="e_wo_entrp">    -50.95257553 </i>
    <i name="e_0_energy">    -50.95257553 </i>
   </energy>
  </scstep>
  <scstep>
   <time name="total">   11.90   11.99</time>
   <energy>
    <i name="e_fr_energy">    -50.95366540 </i>
    <i name="e_wo_entrp">    -50.95366540 </i>
    <i name="e_0_energy">    -50.95366540 </i>
   </energy>
  </scstep>
  <scstep>
   <time name="total">   12.53   12.64</time>
   <energy>
    <i name="e_fr_energy">    -50.95368007 </i>
    <i name="e_wo_entrp">    -50.95368007 </i>
    <i name="e_0_energy">    -50.95368007 </i>
   </energy>
  </scstep>
  <scstep>
   <time name="total">   12.59   12.69</time>
   <energy>
    <i name="e_fr_energy">    -50.95378926 </i>
    <i name="e_wo_entrp">    -50.95378926 </i>
    <i name="e_0_energy">    -50.95378926 </i>
   </energy>
  </scstep>
  <scstep>
   <time name="total">   12.72   12.83</time>
   <energy>
    <i name="e_fr_energy">    -50.95379336 </i>
    <i name="e_wo_entrp">    -50.95379336 </i>
    <i name="e_0_energy">    -50.95379336 </i>
   </energy>
  </scstep>
  <scstep>
   <time name="total">   12.75   12.86</time>
   <energy>
    <i name="e_fr_energy">    -50.95351648 </i>
    <i name="e_wo_entrp">    -50.95351648 </i>
    <i name="e_0_energy">    -50.95351648 </i>
   </energy>
  </scstep>
  <scstep>
   <time name="total">   12.84   12.94</time>
   <energy>
    <i name="e_fr_energy">    -50.95361043 </i>
    <i name="e_wo_entrp">    -50.95361043 </i>
    <i name="e_0_energy">    -50.95361043 </i>
   </energy>
  </scstep>
  <scstep>
   <time name="total">   12.91   13.02</time>
   <energy>
    <i name="e_fr_energy">    -50.95365318 </i>
    <i name="e_wo_entrp">    -50.95365318 </i>
    <i name="e_0_energy">    -50.95365318 </i>
   </energy>
  </scstep>
  <scstep>
   <time name="total">   12.95   13.06</time>
   <energy>
    <i name="e_fr_energy">    -50.95361218 </i>
    <i name="e_wo_entrp">    -50.95361218 </i>
    <i name="e_0_energy">    -50.95361218 </i>
   </energy>
  </scstep>
  <scstep>
   <time name="total">   13.02   13.13</time>
   <energy>
    <i name="e_fr_energy">    -50.95355959 </i>
    <i name="e_wo_entrp">    -50.95355959 </i>
    <i name="e_0_energy">    -50.95355959 </i>
   </energy>
  </scstep>
  <scstep>
   <time name="total">   12.99   13.10</time>
   <energy>
    <i name="e_fr_energy">    -50.95364873 </i>
    <i name="e_wo_entrp">    -50.95364873 </i>
    <i name="e_0_energy">    -50.95364873 </i>
   </energy>
  </scstep>
  <scstep>
   <time name="total">   13.04   13.15</time>
   <energy>
    <i name="e_fr_energy">    -50.95364298 </i>
    <i name="e_wo_entrp">    -50.95364298 </i>
    <i name="e_0_energy">    -50.95364298 </i>
   </energy>
  </scstep>
  <scstep>
   <time name="total">   13.05   13.16</time>
   <energy>
    <i name="e_fr_energy">    -50.95375914 </i>
    <i name="e_wo_entrp">    -50.95375914 </i>
    <i name="e_0_energy">    -50.95375914 </i>
   </energy>
  </scstep>
  <scstep>
   <time name="total">   13.09   13.20</time>
   <energy>
    <i name="e_fr_energy">    -50.95363458 </i>
    <i name="e_wo_entrp">    -50.95363458 </i>
    <i name="e_0_energy">    -50.95363458 </i>
   </energy>
  </scstep>
  <scstep>
   <time name="total">   13.08   13.19</time>
   <energy>
    <i name="e_fr_energy">    -50.95365194 </i>
    <i name="e_wo_entrp">    -50.95365194 </i>
    <i name="e_0_energy">    -50.95365194 </i>
   </energy>
  </scstep>
  <scstep>
   <time name="total">   13.12   13.22</time>
   <energy>
    <i name="e_fr_energy">    -50.95364026 </i>
    <i name="e_wo_entrp">    -50.95364026 </i>
    <i name="e_0_energy">    -50.95364026 </i>
   </energy>
  </scstep>
  <scstep>
   <time name="total">   13.14   13.24</time>
   <energy>
    <i name="e_fr_energy">    -50.95369617 </i>
    <i name="e_wo_entrp">    -50.95369617 </i>
    <i name="e_0_energy">    -50.95369617 </i>
   </energy>
  </scstep>
  <scstep>
   <time name="total">   13.12   13.23</time>
   <energy>
    <i name="e_fr_energy">    -50.95359846 </i>
    <i name="e_wo_entrp">    -50.95359846 </i>
    <i name="e_0_energy">    -50.95359846 </i>
   </energy>
  </scstep>
  <scstep>
   <time name="total">    8.55    8.62</time>
   <energy>
    <i name="e_fr_energy">    -57.23782100 </i>
    <i name="e_wo_entrp">    -57.23782100 </i>
    <i name="e_0_energy">    -57.23782100 </i>
   </energy>
  </scstep>
  <scstep>
   <time name="total">    9.38    9.46</time>
   <energy>
    <i name="e_fr_energy">    -50.62030952 </i>
    <i name="e_wo_entrp">    -50.62030952 </i>
    <i name="e_0_energy">    -50.62030952 </i>
   </energy>
  </scstep>
  <scstep>
   <time name="total">    9.91   10.00</time>
   <energy>
    <i name="e_fr_energy">    -51.07124039 </i>
    <i name="e_wo_entrp">    -51.07124039 </i>
    <i name="e_0_energy">    -51.07124039 </i>
   </energy>
  </scstep>
  <scstep>
   <time name="total">   10.02   10.10</time>
   <energy>
    <i name="e_fr_energy">    -51.46502705 </i>
    <i name="e_wo_entrp">    -51.46502705 </i>
    <i name="e_0_energy">    -51.46502705 </i>
   </energy>
  </scstep>
  <scstep>
   <time name="total">   11.51   11.61</time>
   <energy>
    <i name="e_fr_energy">    -51.53552237 </i>
    <i name="e_wo_entrp">    -51.53552237 </i>
    <i name="e_0_energy">    -51.53552237 </i>
   </energy>
  </scstep>
  <scstep>
   <time name="total">   11.20   11.30</time>
   <energy>
    <i name="e_fr_energy">    -51.51851081 </i>
    <i name="e_wo_entrp">    -51.51851081 </i>
    <i name="e_0_energy">    -51.51851081 </i>
   </energy>
  </scstep>
  <scstep>
   <time name="total">   11.89   11.99</time>
   <energy>
    <i name="e_fr_energy">    -51.50053909 </i>
    <i name="e_wo_entrp">    -51.50053909 </i>
    <i name="e_0_energy">    -51.50053909 </i>
   </energy>
  </scstep>
  <scstep>
   <time name="total">   11.84   11.94</time>
   <energy>
    <i name="e_fr_energy">    -51.49465277 </i>
    <i name="e_wo_entrp">    -51.49465277 </i>
    <i name="e_0_energy">    -51.49465277 </i>
   </energy>
  </scstep>
  <scstep>
   <time name="total">   12.34   12.44</time>
   <energy>
    <i name="e_fr_energy">    -51.49787367 </i>
    <i name="e_wo_entrp">    -51.49787367 </i>
    <i name="e_0_energy">    -51.49787367 </i>
   </energy>
  </scstep>
  <scstep>
   <time name="total">   11.67   11.77</time>
   <energy>
    <i name="e_fr_energy">    -51.49989500 </i>
    <i name="e_wo_entrp">    -51.49989500 </i>
    <i name="e_0_energy">    -51.49989500 </i>
   </energy>
  </scstep>
  <scstep>
   <time name="total">   12.21   12.31</time>
   <energy>
    <i name="e_fr_energy">    -51.49891764 </i>
    <i name="e_wo_entrp">    -51.49891764 </i>
    <i name="e_0_energy">    -51.49891764 </i>
   </energy>
  </scstep>
  <scstep>
   <time name="total">   12.21   12.31</time>
   <energy>
    <i name="e_fr_energy">    -51.49667260 </i>
    <i name="e_wo_entrp">    -51.49667260 </i>
    <i name="e_0_energy">    -51.49667260 </i>
   </energy>
  </scstep>
  <scstep>
   <time name="total">   12.48   12.59</time>
   <energy>
    <i name="e_fr_energy">    -51.49556717 </i>
    <i name="e_wo_entrp">    -51.49556717 </i>
    <i name="e_0_energy">    -51.49556717 </i>
   </energy>
  </scstep>
  <scstep>
   <time name="total">   12.58   12.68</time>
   <energy>
    <i name="e_fr_energy">    -51.49516008 </i>
    <i name="e_wo_entrp">    -51.49516008 </i>
    <i name="e_0_energy">    -51.49516008 </i>
   </energy>
  </scstep>
  <scstep>
   <time name="total">   12.75   12.86</time>
   <energy>
    <i name="e_fr_energy">    -51.49503493 </i>
    <i name="e_wo_entrp">    -51.49503493 </i>
    <i name="e_0_energy">    -51.49503493 </i>
   </energy>
  </scstep>
  <scstep>
   <time name="total">   12.80   12.90</time>
   <energy>
    <i name="e_fr_energy">    -51.49510549 </i>
    <i name="e_wo_entrp">    -51.49510549 </i>
    <i name="e_0_energy">    -51.49510549 </i>
   </energy>
  </scstep>
  <scstep>
   <time name="total">   12.82   12.92</time>
   <energy>
    <i name="e_fr_energy">    -51.49528189 </i>
    <i name="e_wo_entrp">    -51.49528189 </i>
    <i name="e_0_energy">    -51.49528189 </i>
   </energy>
  </scstep>
  <scstep>
   <time name="total">   12.89   13.00</time>
   <energy>
    <i name="e_fr_energy">    -51.49519408 </i>
    <i name="e_wo_entrp">    -51.49519408 </i>
    <i name="e_0_energy">    -51.49519408 </i>
   </energy>
  </scstep>
  <scstep>
   <time name="total">   12.91   13.02</time>
   <energy>
    <i name="e_fr_energy">    -51.49521004 </i>
    <i name="e_wo_entrp">    -51.49521004 </i>
    <i name="e_0_energy">    -51.49521004 </i>
   </energy>
  </scstep>
  <scstep>
   <time name="total">   12.93   13.03</time>
   <energy>
    <i name="e_fr_energy">    -51.49519794 </i>
    <i name="e_wo_entrp">    -51.49519794 </i>
    <i name="e_0_energy">    -51.49519794 </i>
   </energy>
  </scstep>
  <scstep>
   <time name="total">   12.97   13.08</time>
   <energy>
    <i name="e_fr_energy">    -51.49523600 </i>
    <i name="e_wo_entrp">    -51.49523600 </i>
    <i name="e_0_energy">    -51.49523600 </i>
   </energy>
  </scstep>
  <scstep>
   <time name="total">   13.05   13.16</time>
   <energy>
    <i name="e_fr_energy">    -51.49521547 </i>
    <i name="e_wo_entrp">    -51.49521547 </i>
    <i name="e_0_energy">    -51.49521547 </i>
   </energy>
  </scstep>
  <scstep>
   <time name="total">   13.03   13.14</time>
   <energy>
    <i name="e_fr_energy">    -51.49523255 </i>
    <i name="e_wo_entrp">    -51.49523255 </i>
    <i name="e_0_energy">    -51.49523255 </i>
   </energy>
  </scstep>
  <scstep>
   <time name="total">   13.06   13.17</time>
   <energy>
    <i name="e_fr_energy">    -51.49519248 </i>
    <i name="e_wo_entrp">    -51.49519248 </i>
    <i name="e_0_energy">    -51.49519248 </i>
   </energy>
  </scstep>
  <scstep>
   <time name="total">    8.80    8.87</time>
   <energy>
    <i name="e_fr_energy">    -57.62964770 </i>
    <i name="e_wo_entrp">    -57.62964770 </i>
    <i name="e_0_energy">    -57.62964770 </i>
   </energy>
  </scstep>
  <scstep>
   <time name="total">    9.25    9.33</time>
   <energy>
    <i name="e_fr_energy">    -51.00853188 </i>
    <i name="e_wo_entrp">    -51.00853188 </i>
    <i name="e_0_energy">    -51.00853188 </i>
   </energy>
  </scstep>
  <scstep>
   <time name="total">   10.07   10.15</time>
   <energy>
    <i name="e_fr_energy">    -51.18290374 </i>
    <i name="e_wo_entrp">    -51.18290374 </i>
    <i name="e_0_energy">    -51.18290374 </i>
   </energy>
  </scstep>
  <scstep>
   <time name="total">   10.55   10.64</time>
   <energy>
    <i name="e_fr_energy">    -51.11435633 </i>
    <i name="e_wo_entrp">    -51.11435633 </i>
    <i name="e_0_energy">    -51.11435633 </i>
   </energy>
  </scstep>
  <scstep>
   <time name="total">   11.56   11.66</time>
   <energy>
    <i name="e_fr_energy">    -51.10985449 </i>
    <i name="e_wo_entrp">    -51.10985449 </i>
    <i name="e_0_energy">    -51.10985449 </i>
   </energy>
  </scstep>
  <scstep>
   <time name="total">   11.90   11.99</time>
   <energy>
    <i name="e_fr_energy">    -51.11795574 </i>
    <i name="e_wo_entrp">    -51.11795574 </i>
    <i name="e_0_energy">    -51.11795574 </i>
   </energy>
  </scstep>
  <scstep>
   <time name="total">   12.43   12.53</time>
   <energy>
    <i name="e_fr_energy">    -51.12477250 </i>
    <i name="e_wo_entrp">    -51.12477250 </i>
    <i name="e_0_energy">    -51.12477250 </i>
   </energy>
  </scstep>
  <scstep>
   <time name="total">   11.82   11.92</time>
   <energy>
    <i name="e_fr_energy">    -51.12214833 </i>
    <i name="e_wo_entrp">    -51.12214833 </i>
    <i name="e_0_energy">    -51.12214833 </i>
   </energy>
  </scstep>
  <scstep>
   <time name="total">   12.50   12.60</time>
   <energy>
    <i name="e_fr_energy">    -51.12270147 </i>
    <i name="e_wo_entrp">    -51.12270147 </i>
    <i name="e_0_energy">    -51.12270147 </i>
   </energy>
  </scstep>
  <scstep>
   <time name="total">   12.58   12.69</time>
   <energy>
    <i name="e_fr_energy">    -51.12226216 </i>
    <i name="e_wo_entrp">    -51.12226216 </i>
    <i name="e_0_energy">    -51.12226216 </i>
   </energy>
  </scstep>
  <scstep>
   <time name="total">   12.58   12.69</time>
   <energy>
    <i name="e_fr_energy">    -51.12176389 </i>
    <i name="e_wo_entrp">    -51.12176389 </i>
    <i name="e_0_energy">    -51.12176389 </i>
   </energy>
  </scstep>
  <scstep>
   <time name="total">   12.79   12.90</time>
   <energy>
    <i name="e_fr_energy">    -51.12145569 </i>
    <i name="e_wo_entrp">    -51.12145569 </i>
    <i name="e_0_energy">    -51.12145569 </i>
   </energy>
  </scstep>
  <scstep>
   <time name="total">   12.72   12.83</time>
   <energy>
    <i name="e_fr_energy">    -51.12240720 </i>
    <i name="e_wo_entrp">    -51.12240720 </i>
    <i name="e_0_energy">    -51.12240720 </i>
   </energy>
  </scstep>
  <scstep>
   <time name="total">   12.89   13.00</time>
   <energy>
    <i name="e_fr_energy">    -51.12225430 </i>
    <i name="e_wo_entrp">    -51.12225430 </i>
    <i name="e_0_energy">    -51.12225430 </i>
   </energy>
  </scstep>
  <scstep>
   <time name="total">   12.89   13.00</time>
   <energy>
    <i name="e_fr_energy">    -51.12182731 </i>
    <i name="e_wo_entrp">    -51.12182731 </i>
    <i name="e_0_energy">    -51.12182731 </i>
   </energy>
  </scstep>
  <scstep>
   <time name="total">   12.93   13.03</time>
   <energy>
    <i name="e_fr_energy">    -51.12189915 </i>
    <i name="e_wo_entrp">    -51.12189915 </i>
    <i name="e_0_energy">    -51.12189915 </i>
   </energy>
  </scstep>
  <scstep>
   <time name="total">   12.98   13.08</time>
   <energy>
    <i name="e_fr_energy">    -51.12192070 </i>
    <i name="e_wo_entrp">    -51.12192070 </i>
    <i name="e_0_energy">    -51.12192070 </i>
   </energy>
  </scstep>
  <scstep>
   <time name="total">   13.00   13.11</time>
   <energy>
    <i name="e_fr_energy">    -51.12191454 </i>
    <i name="e_wo_entrp">    -51.12191454 </i>
    <i name="e_0_energy">    -51.12191454 </i>
   </energy>
  </scstep>
  <scstep>
   <time name="total">   13.03   13.14</time>
   <energy>
    <i name="e_fr_energy">    -51.12187732 </i>
    <i name="e_wo_entrp">    -51.12187732 </i>
    <i name="e_0_energy">    -51.12187732 </i>
   </energy>
  </scstep>
  <scstep>
   <time name="total">   13.06   13.17</time>
   <energy>
    <i name="e_fr_energy">    -51.12193054 </i>
    <i name="e_wo_entrp">    -51.12193054 </i>
    <i name="e_0_energy">    -51.12193054 </i>
   </energy>
  </scstep>
  <scstep>
   <time name="total">   13.07   13.18</time>
   <energy>
    <i name="e_fr_energy">    -51.12188595 </i>
    <i name="e_wo_entrp">    -51.12188595 </i>
    <i name="e_0_energy">    -51.12188595 </i>
   </energy>
  </scstep>
  <scstep>
   <time name="total">   13.08   13.19</time>
   <energy>
    <i name="e_fr_energy">    -51.12182119 </i>
    <i name="e_wo_entrp">    -51.12182119 </i>
    <i name="e_0_energy">    -51.12182119 </i>
   </energy>
  </scstep>
  <scstep>
   <time name="total">   13.13   13.25</time>
   <energy>
    <i name="e_fr_energy">    -51.12192117 </i>
    <i name="e_wo_entrp">    -51.12192117 </i>
    <i name="e_0_energy">    -51.12192117 </i>
   </energy>
  </scstep>
  <scstep>
   <time name="total">    8.83    8.90</time>
   <energy>
    <i name="e_fr_energy">    -56.85455459 </i>
    <i name="e_wo_entrp">    -56.85455459 </i>
    <i name="e_0_energy">    -56.85455459 </i>
   </energy>
  </scstep>
  <scstep>
   <time name="total">    9.43    9.50</time>
   <energy>
    <i name="e_fr_energy">    -50.83194043 </i>
    <i name="e_wo_entrp">    -50.83194043 </i>
    <i name="e_0_energy">    -50.83194043 </i>
   </energy>
  </scstep>
  <scstep>
   <time name="total">   10.45   10.53</time>
   <energy>
    <i name="e_fr_energy">    -51.01594650 </i>
    <i name="e_wo_entrp">    -51.01594650 </i>
    <i name="e_0_energy">    -51.01594650 </i>
   </energy>
  </scstep>
  <scstep>
   <time name="total">   10.47   10.56</time>
   <energy>
    <i name="e_fr_energy">    -50.94781155 </i>
    <i name="e_wo_entrp">    -50.94781155 </i>
    <i name="e_0_energy">    -50.94781155 </i>
   </energy>
  </scstep>
  <scstep>
   <time name="total">   11.79   11.89</time>
   <energy>
    <i name="e_fr_energy">    -50.94007939 </i>
    <i name="e_wo_entrp">    -50.94007939 </i>
    <i name="e_0_energy">    -50.94007939 </i>
   </energy>
  </scstep>
  <scstep>
   <time name="total">   12.07   12.17</time>
   <energy>
    <i name="e_fr_energy">    -50.94676185 </i>
    <i name="e_wo_entrp">    -50.94676185 </i>
    <i name="e_0_energy">    -50.94676185 </i>
   </energy>
  </scstep>
  <scstep>
   <time name="total">   12.36   12.46</time>
   <energy>
    <i name="e_fr_energy">    -50.95262235 </i>
    <i name="e_wo_entrp">    -50.95262235 </i>
    <i name="e_0_energy">    -50.95262235 </i>
   </energy>
  </scstep>
  <scstep>
   <time name="total">   11.90   11.99</time>
   <energy>
    <i name="e_fr_energy">    -50.95373569 </i>
    <i name="e_wo_entrp">    -50.95373569 </i>
    <i name="e_0_energy">    -50.95373569 </i>
   </energy>
  </scstep>
  <scstep>
   <time name="total">   12.53   12.63</time>
   <energy>
    <i name="e_fr_energy">    -50.95376732 </i>
    <i name="e_wo_entrp">    -50.95376732 </i>
    <i name="e_0_energy">    -50.95376732 </i>
   </energy>
  </scstep>
  <scstep>
   <time name="total">   12.58   12.69</time>
   <energy>
    <i name="e_fr_energy">    -50.95387994 </i>
    <i name="e_wo_entrp">    -50.95387994 </i>
    <i name="e_0_energy">    -50.95387994 </i>
   </energy>
  </scstep>
  <scstep>
   <time name="total">   12.71   12.82</time>
   <energy>
    <i name="e_fr_energy">    -50.95389715 </i>
    <i name="e_wo_entrp">    -50.95389715 </i>
    <i name="e_0_energy">    -50.95389715 </i>
   </energy>
  </scstep>
  <scstep>
   <time name="total">   12.71   12.82</time>
   <energy>
    <i name="e_fr_energy">    -50.95358814 </i>
    <i name="e_wo_entrp">    -50.95358814 </i>
    <i name="e_0_energy">    -50.95358814 </i>
   </energy>
  </scstep>
  <scstep>
   <time name="total">   12.80   12.91</time>
   <energy>
    <i name="e_fr_energy">    -50.95367047 </i>
    <i name="e_wo_entrp">    -50.95367047 </i>
    <i name="e_0_energy">    -50.95367047 </i>
   </energy>
  </scstep>
  <scstep>
   <time name="total">   12.88   12.98</time>
   <energy>
    <i name="e_fr_energy">    -50.95370728 </i>
    <i name="e_wo_entrp">    -50.95370728 </i>
    <i name="e_0_energy">    -50.95370728 </i>
   </energy>
  </scstep>
  <scstep>
   <time name="total">   12.90   13.01</time>
   <energy>
    <i name="e_fr_energy">    -50.95368915 </i>
    <i name="e_wo_entrp">    -50.95368915 </i>
    <i name="e_0_energy">    -50.95368915 </i>
   </energy>
  </scstep>
  <scstep>
   <time name="total">   12.96   13.07</time>
   <energy>
    <i name="e_fr_energy">    -50.95364089 </i>
    <i name="e_wo_entrp">    -50.95364089 </i>
    <i name="e_0_energy">    -50.95364089 </i>
   </energy>
  </scstep>
  <scstep>
   <time name="total">   12.97   13.07</time>
   <energy>
    <i name="e_fr_energy">    -50.95370664 </i>
    <i name="e_wo_entrp">    -50.95370664 </i>
    <i name="e_0_energy">    -50.95370664 </i>
   </energy>
  </scstep>
  <scstep>
   <time name="total">   13.00   13.12</time>
   <energy>
    <i name="e_fr_energy">    -50.95370312 </i>
    <i name="e_wo_entrp">    -50.95370312 </i>
    <i name="e_0_energy">    -50.95370312 </i>
   </energy>
  </scstep>
  <scstep>
   <time name="total">   12.99   13.10</time>
   <energy>
    <i name="e_fr_energy">    -50.95383608 </i>
    <i name="e_wo_entrp">    -50.95383608 </i>
    <i name="e_0_energy">    -50.95383608 </i>
   </energy>
  </scstep>
  <scstep>
   <time name="total">   13.01   13.12</time>
   <energy>
    <i name="e_fr_energy">    -50.95372639 </i>
    <i name="e_wo_entrp">    -50.95372639 </i>
    <i name="e_0_energy">    -50.95372639 </i>
   </energy>
  </scstep>
  <scstep>
   <time name="total">   13.20   13.31</time>
   <energy>
    <i name="e_fr_energy">    -50.95374443 </i>
    <i name="e_wo_entrp">    -50.95374443 </i>
    <i name="e_0_energy">    -50.95374443 </i>
   </energy>
  </scstep>
  <scstep>
   <time name="total">   13.08   13.18</time>
   <energy>
    <i name="e_fr_energy">    -50.95375017 </i>
    <i name="e_wo_entrp">    -50.95375017 </i>
    <i name="e_0_energy">    -50.95375017 </i>
   </energy>
  </scstep>
  <scstep>
   <time name="total">   13.10   13.21</time>
   <energy>
    <i name="e_fr_energy">    -50.95381455 </i>
    <i name="e_wo_entrp">    -50.95381455 </i>
    <i name="e_0_energy">    -50.95381455 </i>
   </energy>
  </scstep>
  <scstep>
   <time name="total">   13.13   13.23</time>
   <energy>
    <i name="e_fr_energy">    -50.95368774 </i>
    <i name="e_wo_entrp">    -50.95368774 </i>
    <i name="e_0_energy">    -50.95368774 </i>
   </energy>
  </scstep>
  <scstep>
   <time name="total">    8.55    8.62</time>
   <energy>
    <i name="e_fr_energy">    -57.23781745 </i>
    <i name="e_wo_entrp">    -57.23781745 </i>
    <i name="e_0_energy">    -57.23781745 </i>
   </energy>
  </scstep>
  <scstep>
   <time name="total">    9.36    9.44</time>
   <energy>
    <i name="e_fr_energy">    -50.62038290 </i>
    <i name="e_wo_entrp">    -50.62038290 </i>
    <i name="e_0_energy">    -50.62038290 </i>
   </energy>
  </scstep>
  <scstep>
   <time name="total">    9.89    9.98</time>
   <energy>
    <i name="e_fr_energy">    -51.07152936 </i>
    <i name="e_wo_entrp">    -51.07152936 </i>
    <i name="e_0_energy">    -51.07152936 </i>
   </energy>
  </scstep>
  <scstep>
   <time name="total">   10.02   10.11</time>
   <energy>
    <i name="e_fr_energy">    -51.46493871 </i>
    <i name="e_wo_entrp">    -51.46493871 </i>
    <i name="e_0_energy">    -51.46493871 </i>
   </energy>
  </scstep>
  <scstep>
   <time name="total">   11.52   11.61</time>
   <energy>
    <i name="e_fr_energy">    -51.53517971 </i>
    <i name="e_wo_entrp">    -51.53517971 </i>
    <i name="e_0_energy">    -51.53517971 </i>
   </energy>
  </scstep>
  <scstep>
   <time name="total">   11.20   11.30</time>
   <energy>
    <i name="e_fr_energy">    -51.51822412 </i>
    <i name="e_wo_entrp">    -51.51822412 </i>
    <i name="e_0_energy">    -51.51822412 </i>
   </energy>
  </scstep>
  <scstep>
   <time name="total">   11.91   12.01</time>
   <energy>
    <i name="e_fr_energy">    -51.50036602 </i>
    <i name="e_wo_entrp">    -51.50036602 </i>
    <i name="e_0_energy">    -51.50036602 </i>
   </energy>
  </scstep>
  <scstep>
   <time name="total">   11.81   11.91</time>
   <energy>
    <i name="e_fr_energy">    -51.49459932 </i>
    <i name="e_wo_entrp">    -51.49459932 </i>
    <i name="e_0_energy">    -51.49459932 </i>
   </energy>
  </scstep>
  <scstep>
   <time name="total">   12.30   12.40</time>
   <energy>
    <i name="e_fr_energy">    -51.49788082 </i>
    <i name="e_wo_entrp">    -51.49788082 </i>
    <i name="e_0_energy">    -51.49788082 </i>
   </energy>
  </scstep>
  <scstep>
   <time name="total">   11.69   11.78</time>
   <energy>
    <i name="e_fr_energy">    -51.49994033 </i>
    <i name="e_wo_entrp">    -51.49994033 </i>
    <i name="e_0_energy">    -51.49994033 </i>
   </energy>
  </scstep>
  <scstep>
   <time name="total">   12.21   12.31</time>
   <energy>
    <i name="e_fr_energy">    -51.49896843 </i>
    <i name="e_wo_entrp">    -51.49896843 </i>
    <i name="e_0_energy">    -51.49896843 </i>
   </energy>
  </scstep>
  <scstep>
   <time name="total">   12.21   12.31</time>
   <energy>
    <i name="e_fr_energy">    -51.49670534 </i>
    <i name="e_wo_entrp">    -51.49670534 </i>
    <i name="e_0_energy">    -51.49670534 </i>
   </energy>
  </scstep>
  <scstep>
   <time name="total">   12.54   12.64</time>
   <energy>
    <i name="e_fr_energy">    -51.49560169 </i>
    <i name="e_wo_entrp">    -51.49560169 </i>
    <i name="e_0_energy">    -51.49560169 </i>
   </energy>
  </scstep>
  <scstep>
   <time name="total">   12.59   12.70</time>
   <energy>
    <i name="e_fr_energy">    -51.49515619 </i>
    <i name="e_wo_entrp">    -51.49515619 </i>
    <i name="e_0_energy">    -51.49515619 </i>
   </energy>
  </scstep>
  <scstep>
   <time name="total">   12.77   12.88</time>
   <energy>
    <i name="e_fr_energy">    -51.49506291 </i>
    <i name="e_wo_entrp">    -51.49506291 </i>
    <i name="e_0_energy">    -51.49506291 </i>
   </energy>
  </scstep>
  <scstep>
   <time name="total">   12.81   12.92</time>
   <energy>
    <i name="e_fr_energy">    -51.49518319 </i>
    <i name="e_wo_entrp">    -51.49518319 </i>
    <i name="e_0_energy">    -51.49518319 </i>
   </energy>
  </scstep>
  <scstep>
   <time name="total">   12.85   12.96</time>
   <energy>
    <i name="e_fr_energy">    -51.49529127 </i>
    <i name="e_wo_entrp">    -51.49529127 </i>
    <i name="e_0_energy">    -51.49529127 </i>
   </energy>
  </scstep>
  <scstep>
   <time name="total">   12.95   13.06</time>
   <energy>
    <i name="e_fr_energy">    -51.49524883 </i>
    <i name="e_wo_entrp">    -51.49524883 </i>
    <i name="e_0_energy">    -51.49524883 </i>
   </energy>
  </scstep>
  <scstep>
   <time name="total">   12.95   13.06</time>
   <energy>
    <i name="e_fr_energy">    -51.49521712 </i>
    <i name="e_wo_entrp">    -51.49521712 </i>
    <i name="e_0_energy">    -51.49521712 </i>
   </energy>
  </scstep>
  <scstep>
   <time name="total">   12.97   13.08</time>
   <energy>
    <i name="e_fr_energy">    -51.49526366 </i>
    <i name="e_wo_entrp">    -51.49526366 </i>
    <i name="e_0_energy">    -51.49526366 </i>
   </energy>
  </scstep>
  <scstep>
   <time name="total">   13.02   13.13</time>
   <energy>
    <i name="e_fr_energy">    -51.49522320 </i>
    <i name="e_wo_entrp">    -51.49522320 </i>
    <i name="e_0_energy">    -51.49522320 </i>
   </energy>
  </scstep>
  <scstep>
   <time name="total">   13.04   13.15</time>
   <energy>
    <i name="e_fr_energy">    -51.49524329 </i>
    <i name="e_wo_entrp">    -51.49524329 </i>
    <i name="e_0_energy">    -51.49524329 </i>
   </energy>
  </scstep>
  <scstep>
   <time name="total">   13.06   13.17</time>
   <energy>
    <i name="e_fr_energy">    -51.49526500 </i>
    <i name="e_wo_entrp">    -51.49526500 </i>
    <i name="e_0_energy">    -51.49526500 </i>
   </energy>
  </scstep>
  <scstep>
   <time name="total">   13.09   13.20</time>
   <energy>
    <i name="e_fr_energy">    -51.49521782 </i>
    <i name="e_wo_entrp">    -51.49521782 </i>
    <i name="e_0_energy">    -51.49521782 </i>
   </energy>
  </scstep>
  <scstep>
   <time name="total">    8.80    8.87</time>
   <energy>
    <i name="e_fr_energy">    -57.60247973 </i>
    <i name="e_wo_entrp">    -57.60247973 </i>
    <i name="e_0_energy">    -57.60247973 </i>
   </energy>
  </scstep>
  <scstep>
   <time name="total">    9.24    9.32</time>
   <energy>
    <i name="e_fr_energy">    -51.00921404 </i>
    <i name="e_wo_entrp">    -51.00921404 </i>
    <i name="e_0_energy">    -51.00921404 </i>
   </energy>
  </scstep>
  <scstep>
   <time name="total">   10.07   10.15</time>
   <energy>
    <i name="e_fr_energy">    -51.18318728 </i>
    <i name="e_wo_entrp">    -51.18318728 </i>
    <i name="e_0_energy">    -51.18318728 </i>
   </energy>
  </scstep>
  <scstep>
   <time name="total">   10.56   10.65</time>
   <energy>
    <i name="e_fr_energy">    -51.11476661 </i>
    <i name="e_wo_entrp">    -51.11476661 </i>
    <i name="e_0_energy">    -51.11476661 </i>
   </energy>
  </scstep>
  <scstep>
   <time name="total">   11.53   11.62</time>
   <energy>
    <i name="e_fr_energy">    -51.11006448 </i>
    <i name="e_wo_entrp">    -51.11006448 </i>
    <i name="e_0_energy">    -51.11006448 </i>
   </energy>
  </scstep>
  <scstep>
   <time name="total">   11.92   12.02</time>
   <energy>
    <i name="e_fr_energy">    -51.11798486 </i>
    <i name="e_wo_entrp">    -51.11798486 </i>
    <i name="e_0_energy">    -51.11798486 </i>
   </energy>
  </scstep>
  <scstep>
   <time name="total">   12.30   12.40</time>
   <energy>
    <i name="e_fr_energy">    -51.12480573 </i>
    <i name="e_wo_entrp">    -51.12480573 </i>
    <i name="e_0_energy">    -51.12480573 </i>
   </energy>
  </scstep>
  <scstep>
   <time name="total">   11.82   11.93</time>
   <energy>
    <i name="e_fr_energy">    -51.12214519 </i>
    <i name="e_wo_entrp">    -51.12214519 </i>
    <i name="e_0_energy">    -51.12214519 </i>
   </energy>
  </scstep>
  <scstep>
   <time name="total">   12.48   12.58</time>
   <energy>
    <i name="e_fr_energy">    -51.12260343 </i>
    <i name="e_wo_entrp">    -51.12260343 </i>
    <i name="e_0_energy">    -51.12260343 </i>
   </energy>
  </scstep>
  <scstep>
   <time name="total">   12.57   12.67</time>
   <energy>
    <i name="e_fr_energy">    -51.12228267 </i>
    <i name="e_wo_entrp">    -51.12228267 </i>
    <i name="e_0_energy">    -51.12228267 </i>
   </energy>
  </scstep>
  <scstep>
   <time name="total">   12.62   12.72</time>
   <energy>
    <i name="e_fr_energy">    -51.12172822 </i>
    <i name="e_wo_entrp">    -51.12172822 </i>
    <i name="e_0_energy">    -51.12172822 </i>
   </energy>
  </scstep>
  <scstep>
   <time name="total">   12.79   12.90</time>
   <energy>
    <i name="e_fr_energy">    -51.12143466 </i>
    <i name="e_wo_entrp">    -51.12143466 </i>
    <i name="e_0_energy">    -51.12143466 </i>
   </energy>
  </scstep>
  <scstep>
   <time name="total">   12.69   12.79</time>
   <energy>
    <i name="e_fr_energy">    -51.12229738 </i>
    <i name="e_wo_entrp">    -51.12229738 </i>
    <i name="e_0_energy">    -51.12229738 </i>
   </energy>
  </scstep>
  <scstep>
   <time name="total">   12.88   12.98</time>
   <energy>
    <i name="e_fr_energy">    -51.12219245 </i>
    <i name="e_wo_entrp">    -51.12219245 </i>
    <i name="e_0_energy">    -51.12219245 </i>
   </energy>
  </scstep>
  <scstep>
   <time name="total">   12.85   12.96</time>
   <energy>
    <i name="e_fr_energy">    -51.12185722 </i>
    <i name="e_wo_entrp">    -51.12185722 </i>
    <i name="e_0_energy">    -51.12185722 </i>
   </energy>
  </scstep>
  <scstep>
   <time name="total">   12.89   13.00</time>
   <energy>
    <i name="e_fr_energy">    -51.12191291 </i>
    <i name="e_wo_entrp">    -51.12191291 </i>
    <i name="e_0_energy">    -51.12191291 </i>
   </energy>
  </scstep>
  <scstep>
   <time name="total">   12.92   13.02</time>
   <energy>
    <i name="e_fr_energy">    -51.12185937 </i>
    <i name="e_wo_entrp">    -51.12185937 </i>
    <i name="e_0_energy">    -51.12185937 </i>
   </energy>
  </scstep>
  <scstep>
   <time name="total">   12.97   13.07</time>
   <energy>
    <i name="e_fr_energy">    -51.12189734 </i>
    <i name="e_wo_entrp">    -51.12189734 </i>
    <i name="e_0_energy">    -51.12189734 </i>
   </energy>
  </scstep>
  <scstep>
   <time name="total">   12.97   13.08</time>
   <energy>
    <i name="e_fr_energy">    -51.12186115 </i>
    <i name="e_wo_entrp">    -51.12186115 </i>
    <i name="e_0_energy">    -51.12186115 </i>
   </energy>
  </scstep>
  <scstep>
   <time name="total">   13.00   13.11</time>
   <energy>
    <i name="e_fr_energy">    -51.12190988 </i>
    <i name="e_wo_entrp">    -51.12190988 </i>
    <i name="e_0_energy">    -51.12190988 </i>
   </energy>
  </scstep>
  <scstep>
   <time name="total">   13.01   13.12</time>
   <energy>
    <i name="e_fr_energy">    -51.12190188 </i>
    <i name="e_wo_entrp">    -51.12190188 </i>
    <i name="e_0_energy">    -51.12190188 </i>
   </energy>
  </scstep>
  <scstep>
   <time name="total">   13.02   13.13</time>
   <energy>
    <i name="e_fr_energy">    -51.12185507 </i>
    <i name="e_wo_entrp">    -51.12185507 </i>
    <i name="e_0_energy">    -51.12185507 </i>
   </energy>
  </scstep>
  <scstep>
   <time name="total">   13.09   13.20</time>
   <energy>
    <i name="e_fr_energy">    -51.12186720 </i>
    <i name="e_wo_entrp">    -51.12186720 </i>
    <i name="e_0_energy">    -51.12186720 </i>
   </energy>
  </scstep>
  <scstep>
   <time name="total">    8.85    8.92</time>
   <energy>
    <i name="e_fr_energy">    -56.80261526 </i>
    <i name="e_wo_entrp">    -56.80261526 </i>
    <i name="e_0_energy">    -56.80261526 </i>
   </energy>
  </scstep>
  <scstep>
   <time name="total">    9.42    9.50</time>
   <energy>
    <i name="e_fr_energy">    -50.83122689 </i>
    <i name="e_wo_entrp">    -50.83122689 </i>
    <i name="e_0_energy">    -50.83122689 </i>
   </energy>
  </scstep>
  <scstep>
   <time name="total">   10.41   10.49</time>
   <energy>
    <i name="e_fr_energy">    -51.01729375 </i>
    <i name="e_wo_entrp">    -51.01729375 </i>
    <i name="e_0_energy">    -51.01729375 </i>
   </energy>
  </scstep>
  <scstep>
   <time name="total">   10.47   10.56</time>
   <energy>
    <i name="e_fr_energy">    -50.94808327 </i>
    <i name="e_wo_entrp">    -50.94808327 </i>
    <i name="e_0_energy">    -50.94808327 </i>
   </energy>
  </scstep>
  <scstep>
   <time name="total">   11.83   11.92</time>
   <energy>
    <i name="e_fr_energy">    -50.94034239 </i>
    <i name="e_wo_entrp">    -50.94034239 </i>
    <i name="e_0_energy">    -50.94034239 </i>
   </energy>
  </scstep>
  <scstep>
   <time name="total">   12.09   12.18</time>
   <energy>
    <i name="e_fr_energy">    -50.94688781 </i>
    <i name="e_wo_entrp">    -50.94688781 </i>
    <i name="e_0_energy">    -50.94688781 </i>
   </energy>
  </scstep>
  <scstep>
   <time name="total">   12.38   12.49</time>
   <energy>
    <i name="e_fr_energy">    -50.95271929 </i>
    <i name="e_wo_entrp">    -50.95271929 </i>
    <i name="e_0_energy">    -50.95271929 </i>
   </energy>
  </scstep>
  <scstep>
   <time name="total">   11.95   12.05</time>
   <energy>
    <i name="e_fr_energy">    -50.95371382 </i>
    <i name="e_wo_entrp">    -50.95371382 </i>
    <i name="e_0_energy">    -50.95371382 </i>
   </energy>
  </scstep>
  <scstep>
   <time name="total">   12.56   12.66</time>
   <energy>
    <i name="e_fr_energy">    -50.95373164 </i>
    <i name="e_wo_entrp">    -50.95373164 </i>
    <i name="e_0_energy">    -50.95373164 </i>
   </energy>
  </scstep>
  <scstep>
   <time name="total">   12.59   12.70</time>
   <energy>
    <i name="e_fr_energy">    -50.95384823 </i>
    <i name="e_wo_entrp">    -50.95384823 </i>
    <i name="e_0_energy">    -50.95384823 </i>
   </energy>
  </scstep>
  <scstep>
   <time name="total">   12.71   12.82</time>
   <energy>
    <i name="e_fr_energy">    -50.95382772 </i>
    <i name="e_wo_entrp">    -50.95382772 </i>
    <i name="e_0_energy">    -50.95382772 </i>
   </energy>
  </scstep>
  <scstep>
   <time name="total">   12.76   12.87</time>
   <energy>
    <i name="e_fr_energy">    -50.95355543 </i>
    <i name="e_wo_entrp">    -50.95355543 </i>
    <i name="e_0_energy">    -50.95355543 </i>
   </energy>
  </scstep>
  <scstep>
   <time name="total">   12.84   12.94</time>
   <energy>
    <i name="e_fr_energy">    -50.95365606 </i>
    <i name="e_wo_entrp">    -50.95365606 </i>
    <i name="e_0_energy">    -50.95365606 </i>
   </energy>
  </scstep>
  <scstep>
   <time name="total">   12.94   13.05</time>
   <energy>
    <i name="e_fr_energy">    -50.95370498 </i>
    <i name="e_wo_entrp">    -50.95370498 </i>
    <i name="e_0_energy">    -50.95370498 </i>
   </energy>
  </scstep>
  <scstep>
   <time name="total">   12.95   13.05</time>
   <energy>
    <i name="e_fr_energy">    -50.95364175 </i>
    <i name="e_wo_entrp">    -50.95364175 </i>
    <i name="e_0_energy">    -50.95364175 </i>
   </energy>
  </scstep>
  <scstep>
   <time name="total">   13.02   13.13</time>
   <energy>
    <i name="e_fr_energy">    -50.95363909 </i>
    <i name="e_wo_entrp">    -50.95363909 </i>
    <i name="e_0_energy">    -50.95363909 </i>
   </energy>
  </scstep>
  <scstep>
   <time name="total">   13.02   13.13</time>
   <energy>
    <i name="e_fr_energy">    -50.95367348 </i>
    <i name="e_wo_entrp">    -50.95367348 </i>
    <i name="e_0_energy">    -50.95367348 </i>
   </energy>
  </scstep>
  <scstep>
   <time name="total">   13.01   13.12</time>
   <energy>
    <i name="e_fr_energy">    -50.95374113 </i>
    <i name="e_wo_entrp">    -50.95374113 </i>
    <i name="e_0_energy">    -50.95374113 </i>
   </energy>
  </scstep>
  <scstep>
   <time name="total">   13.05   13.15</time>
   <energy>
    <i name="e_fr_energy">    -50.95377437 </i>
    <i name="e_wo_entrp">    -50.95377437 </i>
    <i name="e_0_energy">    -50.95377437 </i>
   </energy>
  </scstep>
  <scstep>
   <time name="total">   13.08   13.19</time>
   <energy>
    <i name="e_fr_energy">    -50.95368951 </i>
    <i name="e_wo_entrp">    -50.95368951 </i>
    <i name="e_0_energy">    -50.95368951 </i>
   </energy>
  </scstep>
  <scstep>
   <time name="total">   13.09   13.20</time>
   <energy>
    <i name="e_fr_energy">    -50.95370113 </i>
    <i name="e_wo_entrp">    -50.95370113 </i>
    <i name="e_0_energy">    -50.95370113 </i>
   </energy>
  </scstep>
  <scstep>
   <time name="total">   13.09   13.20</time>
   <energy>
    <i name="e_fr_energy">    -50.95365849 </i>
    <i name="e_wo_entrp">    -50.95365849 </i>
    <i name="e_0_energy">    -50.95365849 </i>
   </energy>
  </scstep>
  <scstep>
   <time name="total">   13.11   13.22</time>
   <energy>
    <i name="e_fr_energy">    -50.95371837 </i>
    <i name="e_wo_entrp">    -50.95371837 </i>
    <i name="e_0_energy">    -50.95371837 </i>
   </energy>
  </scstep>
  <scstep>
   <time name="total">   13.14   13.25</time>
   <energy>
    <i name="e_fr_energy">    -50.95365067 </i>
    <i name="e_wo_entrp">    -50.95365067 </i>
    <i name="e_0_energy">    -50.95365067 </i>
   </energy>
  </scstep>
  <scstep>
   <time name="total">    8.57    8.65</time>
   <energy>
    <i name="e_fr_energy">    -57.23472116 </i>
    <i name="e_wo_entrp">    -57.23472116 </i>
    <i name="e_0_energy">    -57.23472116 </i>
   </energy>
  </scstep>
  <scstep>
   <time name="total">    9.35    9.43</time>
   <energy>
    <i name="e_fr_energy">    -50.61948476 </i>
    <i name="e_wo_entrp">    -50.61948476 </i>
    <i name="e_0_energy">    -50.61948476 </i>
   </energy>
  </scstep>
  <scstep>
   <time name="total">   10.02   10.10</time>
   <energy>
    <i name="e_fr_energy">    -51.07201871 </i>
    <i name="e_wo_entrp">    -51.07201871 </i>
    <i name="e_0_energy">    -51.07201871 </i>
   </energy>
  </scstep>
  <scstep>
   <time name="total">   10.02   10.10</time>
   <energy>
    <i name="e_fr_energy">    -51.46494245 </i>
    <i name="e_wo_entrp">    -51.46494245 </i>
    <i name="e_0_energy">    -51.46494245 </i>
   </energy>
  </scstep>
  <scstep>
   <time name="total">   11.52   11.62</time>
   <energy>
    <i name="e_fr_energy">    -51.53568943 </i>
    <i name="e_wo_entrp">    -51.53568943 </i>
    <i name="e_0_energy">    -51.53568943 </i>
   </energy>
  </scstep>
  <scstep>
   <time name="total">   11.23   11.32</time>
   <energy>
    <i name="e_fr_energy">    -51.51858536 </i>
    <i name="e_wo_entrp">    -51.51858536 </i>
    <i name="e_0_energy">    -51.51858536 </i>
   </energy>
  </scstep>
  <scstep>
   <time name="total">   11.91   12.01</time>
   <energy>
    <i name="e_fr_energy">    -51.50049340 </i>
    <i name="e_wo_entrp">    -51.50049340 </i>
    <i name="e_0_energy">    -51.50049340 </i>
   </energy>
  </scstep>
  <scstep>
   <time name="total">   11.85   11.95</time>
   <energy>
    <i name="e_fr_energy">    -51.49457752 </i>
    <i name="e_wo_entrp">    -51.49457752 </i>
    <i name="e_0_energy">    -51.49457752 </i>
   </energy>
  </scstep>
  <scstep>
   <time name="total">   12.32   12.43</time>
   <energy>
    <i name="e_fr_energy">    -51.49779857 </i>
    <i name="e_wo_entrp">    -51.49779857 </i>
    <i name="e_0_energy">    -51.49779857 </i>
   </energy>
  </scstep>
  <scstep>
   <time name="total">   11.69   11.79</time>
   <energy>
    <i name="e_fr_energy">    -51.49989426 </i>
    <i name="e_wo_entrp">    -51.49989426 </i>
    <i name="e_0_energy">    -51.49989426 </i>
   </energy>
  </scstep>
  <scstep>
   <time name="total">   12.20   12.30</time>
   <energy>
    <i name="e_fr_energy">    -51.49890718 </i>
    <i name="e_wo_entrp">    -51.49890718 </i>
    <i name="e_0_energy">    -51.49890718 </i>
   </energy>
  </scstep>
  <scstep>
   <time name="total">   12.19   12.29</time>
   <energy>
    <i name="e_fr_energy">    -51.49665301 </i>
    <i name="e_wo_entrp">    -51.49665301 </i>
    <i name="e_0_energy">    -51.49665301 </i>
   </energy>
  </scstep>
  <scstep>
   <time name="total">   12.45   12.56</time>
   <energy>
    <i name="e_fr_energy">    -51.49554378 </i>
    <i name="e_wo_entrp">    -51.49554378 </i>
    <i name="e_0_energy">    -51.49554378 </i>
   </energy>
  </scstep>
  <scstep>
   <time name="total">   12.59   12.69</time>
   <energy>
    <i name="e_fr_energy">    -51.49512694 </i>
    <i name="e_wo_entrp">    -51.49512694 </i>
    <i name="e_0_energy">    -51.49512694 </i>
   </energy>
  </scstep>
  <scstep>
   <time name="total">   12.76   12.87</time>
   <energy>
    <i name="e_fr_energy">    -51.49496233 </i>
    <i name="e_wo_entrp">    -51.49496233 </i>
    <i name="e_0_energy">    -51.49496233 </i>
   </energy>
  </scstep>
  <scstep>
   <time name="total">   12.83   12.93</time>
   <energy>
    <i name="e_fr_energy">    -51.49514126 </i>
    <i name="e_wo_entrp">    -51.49514126 </i>
    <i name="e_0_energy">    -51.49514126 </i>
   </energy>
  </scstep>
  <scstep>
   <time name="total">   12.88   12.99</time>
   <energy>
    <i name="e_fr_energy">    -51.49519254 </i>
    <i name="e_wo_entrp">    -51.49519254 </i>
    <i name="e_0_energy">    -51.49519254 </i>
   </energy>
  </scstep>
  <scstep>
   <time name="total">   12.94   13.05</time>
   <energy>
    <i name="e_fr_energy">    -51.49520695 </i>
    <i name="e_wo_entrp">    -51.49520695 </i>
    <i name="e_0_energy">    -51.49520695 </i>
   </energy>
  </scstep>
  <scstep>
   <time name="total">   12.93   13.03</time>
   <energy>
    <i name="e_fr_energy">    -51.49512729 </i>
    <i name="e_wo_entrp">    -51.49512729 </i>
    <i name="e_0_energy">    -51.49512729 </i>
   </energy>
  </scstep>
  <scstep>
   <time name="total">   12.98   13.09</time>
   <energy>
    <i name="e_fr_energy">    -51.49521924 </i>
    <i name="e_wo_entrp">    -51.49521924 </i>
    <i name="e_0_energy">    -51.49521924 </i>
   </energy>
  </scstep>
  <scstep>
   <time name="total">   13.03   13.14</time>
   <energy>
    <i name="e_fr_energy">    -51.49521247 </i>
    <i name="e_wo_entrp">    -51.49521247 </i>
    <i name="e_0_energy">    -51.49521247 </i>
   </energy>
  </scstep>
  <scstep>
   <time name="total">   13.04   13.15</time>
   <energy>
    <i name="e_fr_energy">    -51.49516570 </i>
    <i name="e_wo_entrp">    -51.49516570 </i>
    <i name="e_0_energy">    -51.49516570 </i>
   </energy>
  </scstep>
  <scstep>
   <time name="total">   13.07   13.18</time>
   <energy>
    <i name="e_fr_energy">    -51.49520582 </i>
    <i name="e_wo_entrp">    -51.49520582 </i>
    <i name="e_0_energy">    -51.49520582 </i>
   </energy>
  </scstep>
  <scstep>
   <time name="total">   13.06   13.17</time>
   <energy>
    <i name="e_fr_energy">    -51.49514724 </i>
    <i name="e_wo_entrp">    -51.49514724 </i>
    <i name="e_0_energy">    -51.49514724 </i>
   </energy>
  </scstep>
  <scstep>
   <time name="total">   13.07   13.18</time>
   <energy>
    <i name="e_fr_energy">    -51.49520326 </i>
    <i name="e_wo_entrp">    -51.49520326 </i>
    <i name="e_0_energy">    -51.49520326 </i>
   </energy>
  </scstep>
  <scstep>
   <time name="total">   13.06   13.17</time>
   <energy>
    <i name="e_fr_energy">    -51.49517379 </i>
    <i name="e_wo_entrp">    -51.49517379 </i>
    <i name="e_0_energy">    -51.49517379 </i>
   </energy>
  </scstep>
  <scstep>
   <time name="total">    8.74    8.87</time>
   <energy>
    <i name="e_fr_energy">    -57.60247848 </i>
    <i name="e_wo_entrp">    -57.60247848 </i>
    <i name="e_0_energy">    -57.60247848 </i>
   </energy>
  </scstep>
  <scstep>
   <time name="total">    9.24    9.32</time>
   <energy>
    <i name="e_fr_energy">    -51.00840750 </i>
    <i name="e_wo_entrp">    -51.00840750 </i>
    <i name="e_0_energy">    -51.00840750 </i>
   </energy>
  </scstep>
  <scstep>
   <time name="total">   10.06   10.15</time>
   <energy>
    <i name="e_fr_energy">    -51.18335017 </i>
    <i name="e_wo_entrp">    -51.18335017 </i>
    <i name="e_0_energy">    -51.18335017 </i>
   </energy>
  </scstep>
  <scstep>
   <time name="total">   10.53   10.62</time>
   <energy>
    <i name="e_fr_energy">    -51.11461014 </i>
    <i name="e_wo_entrp">    -51.11461014 </i>
    <i name="e_0_energy">    -51.11461014 </i>
   </energy>
  </scstep>
  <scstep>
   <time name="total">   11.51   11.61</time>
   <energy>
    <i name="e_fr_energy">    -51.11010604 </i>
    <i name="e_wo_entrp">    -51.11010604 </i>
    <i name="e_0_energy">    -51.11010604 </i>
   </energy>
  </scstep>
  <scstep>
   <time name="total">   11.88   11.98</time>
   <energy>
    <i name="e_fr_energy">    -51.11801169 </i>
    <i name="e_wo_entrp">    -51.11801169 </i>
    <i name="e_0_energy">    -51.11801169 </i>
   </energy>
  </scstep>
  <scstep>
   <time name="total">   12.31   12.41</time>
   <energy>
    <i name="e_fr_energy">    -51.12477443 </i>
    <i name="e_wo_entrp">    -51.12477443 </i>
    <i name="e_0_energy">    -51.12477443 </i>
   </energy>
  </scstep>
  <scstep>
   <time name="total">   11.84   11.94</time>
   <energy>
    <i name="e_fr_energy">    -51.12218611 </i>
    <i name="e_wo_entrp">    -51.12218611 </i>
    <i name="e_0_energy">    -51.12218611 </i>
   </energy>
  </scstep>
  <scstep>
   <time name="total">   12.53   12.63</time>
   <energy>
    <i name="e_fr_energy">    -51.12265550 </i>
    <i name="e_wo_entrp">    -51.12265550 </i>
    <i name="e_0_energy">    -51.12265550 </i>
   </energy>
  </scstep>
  <scstep>
   <time name="total">   12.57   12.67</time>
   <energy>
    <i name="e_fr_energy">    -51.12226491 </i>
    <i name="e_wo_entrp">    -51.12226491 </i>
    <i name="e_0_energy">    -51.12226491 </i>
   </energy>
  </scstep>
  <scstep>
   <time name="total">   12.62   12.72</time>
   <energy>
    <i name="e_fr_energy">    -51.12171894 </i>
    <i name="e_wo_entrp">    -51.12171894 </i>
    <i name="e_0_energy">    -51.12171894 </i>
   </energy>
  </scstep>
  <scstep>
   <time name="total">   12.73   12.83</time>
   <energy>
    <i name="e_fr_energy">    -51.12139502 </i>
    <i name="e_wo_entrp">    -51.12139502 </i>
    <i name="e_0_energy">    -51.12139502 </i>
   </energy>
  </scstep>
  <scstep>
   <time name="total">   12.73   12.84</time>
   <energy>
    <i name="e_fr_energy">    -51.12237965 </i>
    <i name="e_wo_entrp">    -51.12237965 </i>
    <i name="e_0_energy">    -51.12237965 </i>
   </energy>
  </scstep>
  <scstep>
   <time name="total">   12.88   12.99</time>
   <energy>
    <i name="e_fr_energy">    -51.12225033 </i>
    <i name="e_wo_entrp">    -51.12225033 </i>
    <i name="e_0_energy">    -51.12225033 </i>
   </energy>
  </scstep>
  <scstep>
   <time name="total">   12.92   13.03</time>
   <energy>
    <i name="e_fr_energy">    -51.12183415 </i>
    <i name="e_wo_entrp">    -51.12183415 </i>
    <i name="e_0_energy">    -51.12183415 </i>
   </energy>
  </scstep>
  <scstep>
   <time name="total">   12.90   13.01</time>
   <energy>
    <i name="e_fr_energy">    -51.12189537 </i>
    <i name="e_wo_entrp">    -51.12189537 </i>
    <i name="e_0_energy">    -51.12189537 </i>
   </energy>
  </scstep>
  <scstep>
   <time name="total">   12.93   13.03</time>
   <energy>
    <i name="e_fr_energy">    -51.12188209 </i>
    <i name="e_wo_entrp">    -51.12188209 </i>
    <i name="e_0_energy">    -51.12188209 </i>
   </energy>
  </scstep>
  <scstep>
   <time name="total">   12.95   13.06</time>
   <energy>
    <i name="e_fr_energy">    -51.12184728 </i>
    <i name="e_wo_entrp">    -51.12184728 </i>
    <i name="e_0_energy">    -51.12184728 </i>
   </energy>
  </scstep>
  <scstep>
   <time name="total">   12.96   13.07</time>
   <energy>
    <i name="e_fr_energy">    -51.12180514 </i>
    <i name="e_wo_entrp">    -51.12180514 </i>
    <i name="e_0_energy">    -51.12180514 </i>
   </energy>
  </scstep>
  <scstep>
   <time name="total">   13.05   13.16</time>
   <energy>
    <i name="e_fr_energy">    -51.12190872 </i>
    <i name="e_wo_entrp">    -51.12190872 </i>
    <i name="e_0_energy">    -51.12190872 </i>
   </energy>
  </scstep>
  <scstep>
   <time name="total">   13.05   13.16</time>
   <energy>
    <i name="e_fr_energy">    -51.12189133 </i>
    <i name="e_wo_entrp">    -51.12189133 </i>
    <i name="e_0_energy">    -51.12189133 </i>
   </energy>
  </scstep>
  <scstep>
   <time name="total">   13.11   13.22</time>
   <energy>
    <i name="e_fr_energy">    -51.12178819 </i>
    <i name="e_wo_entrp">    -51.12178819 </i>
    <i name="e_0_energy">    -51.12178819 </i>
   </energy>
  </scstep>
  <scstep>
   <time name="total">   13.08   13.19</time>
   <energy>
    <i name="e_fr_energy">    -51.12194598 </i>
    <i name="e_wo_entrp">    -51.12194598 </i>
    <i name="e_0_energy">    -51.12194598 </i>
   </energy>
  </scstep>
  <scstep>
   <time name="total">   13.09   13.20</time>
   <energy>
    <i name="e_fr_energy">    -51.12232787 </i>
    <i name="e_wo_entrp">    -51.12232787 </i>
    <i name="e_0_energy">    -51.12232787 </i>
   </energy>
  </scstep>
  <scstep>
   <time name="total">   13.09   13.20</time>
   <energy>
    <i name="e_fr_energy">    -51.12177618 </i>
    <i name="e_wo_entrp">    -51.12177618 </i>
    <i name="e_0_energy">    -51.12177618 </i>
   </energy>
  </scstep>
  <scstep>
   <time name="total">   13.11   13.22</time>
   <energy>
    <i name="e_fr_energy">    -51.12158362 </i>
    <i name="e_wo_entrp">    -51.12158362 </i>
    <i name="e_0_energy">    -51.12158362 </i>
   </energy>
  </scstep>
  <scstep>
   <time name="total">   13.13   13.24</time>
   <energy>
    <i name="e_fr_energy">    -51.12199889 </i>
    <i name="e_wo_entrp">    -51.12199889 </i>
    <i name="e_0_energy">    -51.12199889 </i>
   </energy>
  </scstep>
  <scstep>
   <time name="total">   13.13   13.24</time>
   <energy>
    <i name="e_fr_energy">    -51.12211472 </i>
    <i name="e_wo_entrp">    -51.12211472 </i>
    <i name="e_0_energy">    -51.12211472 </i>
   </energy>
  </scstep>
  <scstep>
   <time name="total">    8.84    8.92</time>
   <energy>
    <i name="e_fr_energy">    -56.80261547 </i>
    <i name="e_wo_entrp">    -56.80261547 </i>
    <i name="e_0_energy">    -56.80261547 </i>
   </energy>
  </scstep>
  <scstep>
   <time name="total">    9.42    9.50</time>
   <energy>
    <i name="e_fr_energy">    -50.83151159 </i>
    <i name="e_wo_entrp">    -50.83151159 </i>
    <i name="e_0_energy">    -50.83151159 </i>
   </energy>
  </scstep>
  <scstep>
   <time name="total">   10.43   10.52</time>
   <energy>
    <i name="e_fr_energy">    -51.01632771 </i>
    <i name="e_wo_entrp">    -51.01632771 </i>
    <i name="e_0_energy">    -51.01632771 </i>
   </energy>
  </scstep>
  <scstep>
   <time name="total">   10.46   10.54</time>
   <energy>
    <i name="e_fr_energy">    -50.94800855 </i>
    <i name="e_wo_entrp">    -50.94800855 </i>
    <i name="e_0_energy">    -50.94800855 </i>
   </energy>
  </scstep>
  <scstep>
   <time name="total">   11.79   11.89</time>
   <energy>
    <i name="e_fr_energy">    -50.94030790 </i>
    <i name="e_wo_entrp">    -50.94030790 </i>
    <i name="e_0_energy">    -50.94030790 </i>
   </energy>
  </scstep>
  <scstep>
   <time name="total">   12.10   12.20</time>
   <energy>
    <i name="e_fr_energy">    -50.94679115 </i>
    <i name="e_wo_entrp">    -50.94679115 </i>
    <i name="e_0_energy">    -50.94679115 </i>
   </energy>
  </scstep>
  <scstep>
   <time name="total">   12.37   12.47</time>
   <energy>
    <i name="e_fr_energy">    -50.95265420 </i>
    <i name="e_wo_entrp">    -50.95265420 </i>
    <i name="e_0_energy">    -50.95265420 </i>
   </energy>
  </scstep>
  <scstep>
   <time name="total">   11.91   12.02</time>
   <energy>
    <i name="e_fr_energy">    -50.95369368 </i>
    <i name="e_wo_entrp">    -50.95369368 </i>
    <i name="e_0_energy">    -50.95369368 </i>
   </energy>
  </scstep>
  <scstep>
   <time name="total">   12.52   12.62</time>
   <energy>
    <i name="e_fr_energy">    -50.95369573 </i>
    <i name="e_wo_entrp">    -50.95369573 </i>
    <i name="e_0_energy">    -50.95369573 </i>
   </energy>
  </scstep>
  <scstep>
   <time name="total">   12.58   12.68</time>
   <energy>
    <i name="e_fr_energy">    -50.95381405 </i>
    <i name="e_wo_entrp">    -50.95381405 </i>
    <i name="e_0_energy">    -50.95381405 </i>
   </energy>
  </scstep>
  <scstep>
   <time name="total">   12.67   12.78</time>
   <energy>
    <i name="e_fr_energy">    -50.95382338 </i>
    <i name="e_wo_entrp">    -50.95382338 </i>
    <i name="e_0_energy">    -50.95382338 </i>
   </energy>
  </scstep>
  <scstep>
   <time name="total">   12.70   12.80</time>
   <energy>
    <i name="e_fr_energy">    -50.95352144 </i>
    <i name="e_wo_entrp">    -50.95352144 </i>
    <i name="e_0_energy">    -50.95352144 </i>
   </energy>
  </scstep>
  <scstep>
   <time name="total">   12.80   12.91</time>
   <energy>
    <i name="e_fr_energy">    -50.95360336 </i>
    <i name="e_wo_entrp">    -50.95360336 </i>
    <i name="e_0_energy">    -50.95360336 </i>
   </energy>
  </scstep>
  <scstep>
   <time name="total">   12.89   12.99</time>
   <energy>
    <i name="e_fr_energy">    -50.95367394 </i>
    <i name="e_wo_entrp">    -50.95367394 </i>
    <i name="e_0_energy">    -50.95367394 </i>
   </energy>
  </scstep>
  <scstep>
   <time name="total">   12.94   13.05</time>
   <energy>
    <i name="e_fr_energy">    -50.95361469 </i>
    <i name="e_wo_entrp">    -50.95361469 </i>
    <i name="e_0_energy">    -50.95361469 </i>
   </energy>
  </scstep>
  <scstep>
   <time name="total">   12.94   13.05</time>
   <energy>
    <i name="e_fr_energy">    -50.95359079 </i>
    <i name="e_wo_entrp">    -50.95359079 </i>
    <i name="e_0_energy">    -50.95359079 </i>
   </energy>
  </scstep>
  <scstep>
   <time name="total">   12.95   13.06</time>
   <energy>
    <i name="e_fr_energy">    -50.95368652 </i>
    <i name="e_wo_entrp">    -50.95368652 </i>
    <i name="e_0_energy">    -50.95368652 </i>
   </energy>
  </scstep>
  <scstep>
   <time name="total">   12.99   13.10</time>
   <energy>
    <i name="e_fr_energy">    -50.95368462 </i>
    <i name="e_wo_entrp">    -50.95368462 </i>
    <i name="e_0_energy">    -50.95368462 </i>
   </energy>
  </scstep>
  <scstep>
   <time name="total">   12.99   13.10</time>
   <energy>
    <i name="e_fr_energy">    -50.95380546 </i>
    <i name="e_wo_entrp">    -50.95380546 </i>
    <i name="e_0_energy">    -50.95380546 </i>
   </energy>
  </scstep>
  <scstep>
   <time name="total">   13.03   13.14</time>
   <energy>
    <i name="e_fr_energy">    -50.95364058 </i>
    <i name="e_wo_entrp">    -50.95364058 </i>
    <i name="e_0_energy">    -50.95364058 </i>
   </energy>
  </scstep>
  <scstep>
   <time name="total">   13.05   13.16</time>
   <energy>
    <i name="e_fr_energy">    -50.95371148 </i>
    <i name="e_wo_entrp">    -50.95371148 </i>
    <i name="e_0_energy">    -50.95371148 </i>
   </energy>
  </scstep>
  <scstep>
   <time name="total">   13.08   13.19</time>
   <energy>
    <i name="e_fr_energy">    -50.95366152 </i>
    <i name="e_wo_entrp">    -50.95366152 </i>
    <i name="e_0_energy">    -50.95366152 </i>
   </energy>
  </scstep>
  <scstep>
   <time name="total">   13.10   13.21</time>
   <energy>
    <i name="e_fr_energy">    -50.95371955 </i>
    <i name="e_wo_entrp">    -50.95371955 </i>
    <i name="e_0_energy">    -50.95371955 </i>
   </energy>
  </scstep>
  <scstep>
   <time name="total">    8.60    8.67</time>
   <energy>
    <i name="e_fr_energy">    -57.23472104 </i>
    <i name="e_wo_entrp">    -57.23472104 </i>
    <i name="e_0_energy">    -57.23472104 </i>
   </energy>
  </scstep>
  <scstep>
   <time name="total">    9.37    9.44</time>
   <energy>
    <i name="e_fr_energy">    -50.61950557 </i>
    <i name="e_wo_entrp">    -50.61950557 </i>
    <i name="e_0_energy">    -50.61950557 </i>
   </energy>
  </scstep>
  <scstep>
   <time name="total">    9.93   10.01</time>
   <energy>
    <i name="e_fr_energy">    -51.07129812 </i>
    <i name="e_wo_entrp">    -51.07129812 </i>
    <i name="e_0_energy">    -51.07129812 </i>
   </energy>
  </scstep>
  <scstep>
   <time name="total">   10.03   10.11</time>
   <energy>
    <i name="e_fr_energy">    -51.46480071 </i>
    <i name="e_wo_entrp">    -51.46480071 </i>
    <i name="e_0_energy">    -51.46480071 </i>
   </energy>
  </scstep>
  <scstep>
   <time name="total">   11.52   11.62</time>
   <energy>
    <i name="e_fr_energy">    -51.53537194 </i>
    <i name="e_wo_entrp">    -51.53537194 </i>
    <i name="e_0_energy">    -51.53537194 </i>
   </energy>
  </scstep>
  <scstep>
   <time name="total">   11.25   11.34</time>
   <energy>
    <i name="e_fr_energy">    -51.51835257 </i>
    <i name="e_wo_entrp">    -51.51835257 </i>
    <i name="e_0_energy">    -51.51835257 </i>
   </energy>
  </scstep>
  <scstep>
   <time name="total">   11.92   12.03</time>
   <energy>
    <i name="e_fr_energy">    -51.50041712 </i>
    <i name="e_wo_entrp">    -51.50041712 </i>
    <i name="e_0_energy">    -51.50041712 </i>
   </energy>
  </scstep>
  <scstep>
   <time name="total">   11.85   11.95</time>
   <energy>
    <i name="e_fr_energy">    -51.49462724 </i>
    <i name="e_wo_entrp">    -51.49462724 </i>
    <i name="e_0_energy">    -51.49462724 </i>
   </energy>
  </scstep>
  <scstep>
   <time name="total">   12.35   12.46</time>
   <energy>
    <i name="e_fr_energy">    -51.49788999 </i>
    <i name="e_wo_entrp">    -51.49788999 </i>
    <i name="e_0_energy">    -51.49788999 </i>
   </energy>
  </scstep>
  <scstep>
   <time name="total">   11.76   11.85</time>
   <energy>
    <i name="e_fr_energy">    -51.49995215 </i>
    <i name="e_wo_entrp">    -51.49995215 </i>
    <i name="e_0_energy">    -51.49995215 </i>
   </energy>
  </scstep>
  <scstep>
   <time name="total">   12.25   12.35</time>
   <energy>
    <i name="e_fr_energy">    -51.49896701 </i>
    <i name="e_wo_entrp">    -51.49896701 </i>
    <i name="e_0_energy">    -51.49896701 </i>
   </energy>
  </scstep>
  <scstep>
   <time name="total">   12.19   12.29</time>
   <energy>
    <i name="e_fr_energy">    -51.49670506 </i>
    <i name="e_wo_entrp">    -51.49670506 </i>
    <i name="e_0_energy">    -51.49670506 </i>
   </energy>
  </scstep>
  <scstep>
   <time name="total">   12.50   12.61</time>
   <energy>
    <i name="e_fr_energy">    -51.49561195 </i>
    <i name="e_wo_entrp">    -51.49561195 </i>
    <i name="e_0_energy">    -51.49561195 </i>
   </energy>
  </scstep>
  <scstep>
   <time name="total">   12.55   12.66</time>
   <energy>
    <i name="e_fr_energy">    -51.49515706 </i>
    <i name="e_wo_entrp">    -51.49515706 </i>
    <i name="e_0_energy">    -51.49515706 </i>
   </energy>
  </scstep>
  <scstep>
   <time name="total">   12.74   12.85</time>
   <energy>
    <i name="e_fr_energy">    -51.49511399 </i>
    <i name="e_wo_entrp">    -51.49511399 </i>
    <i name="e_0_energy">    -51.49511399 </i>
   </energy>
  </scstep>
  <scstep>
   <time name="total">   12.76   12.86</time>
   <energy>
    <i name="e_fr_energy">    -51.49516820 </i>
    <i name="e_wo_entrp">    -51.49516820 </i>
    <i name="e_0_energy">    -51.49516820 </i>
   </energy>
  </scstep>
  <scstep>
   <time name="total">   12.81   12.92</time>
   <energy>
    <i name="e_fr_energy">    -51.49529496 </i>
    <i name="e_wo_entrp">    -51.49529496 </i>
    <i name="e_0_energy">    -51.49529496 </i>
   </energy>
  </scstep>
  <scstep>
   <time name="total">   12.89   13.00</time>
   <energy>
    <i name="e_fr_energy">    -51.49527772 </i>
    <i name="e_wo_entrp">    -51.49527772 </i>
    <i name="e_0_energy">    -51.49527772 </i>
   </energy>
  </scstep>
  <scstep>
   <time name="total">   12.91   13.02</time>
   <energy>
    <i name="e_fr_energy">    -51.49519649 </i>
    <i name="e_wo_entrp">    -51.49519649 </i>
    <i name="e_0_energy">    -51.49519649 </i>
   </energy>
  </scstep>
  <scstep>
   <time name="total">   12.94   13.05</time>
   <energy>
    <i name="e_fr_energy">    -51.49530751 </i>
    <i name="e_wo_entrp">    -51.49530751 </i>
    <i name="e_0_energy">    -51.49530751 </i>
   </energy>
  </scstep>
  <scstep>
   <time name="total">   12.94   13.05</time>
   <energy>
    <i name="e_fr_energy">    -51.49523280 </i>
    <i name="e_wo_entrp">    -51.49523280 </i>
    <i name="e_0_energy">    -51.49523280 </i>
   </energy>
  </scstep>
  <scstep>
   <time name="total">   13.00   13.11</time>
   <energy>
    <i name="e_fr_energy">    -51.49525653 </i>
    <i name="e_wo_entrp">    -51.49525653 </i>
    <i name="e_0_energy">    -51.49525653 </i>
   </energy>
  </scstep>
  <scstep>
   <time name="total">   13.00   13.11</time>
   <energy>
    <i name="e_fr_energy">    -51.49527938 </i>
    <i name="e_wo_entrp">    -51.49527938 </i>
    <i name="e_0_energy">    -51.49527938 </i>
   </energy>
  </scstep>
  <scstep>
   <time name="total">   13.03   13.14</time>
   <energy>
    <i name="e_fr_energy">    -51.49521761 </i>
    <i name="e_wo_entrp">    -51.49521761 </i>
    <i name="e_0_energy">    -51.49521761 </i>
   </energy>
  </scstep>
  <scstep>
   <time name="total">   13.05   13.16</time>
   <energy>
    <i name="e_fr_energy">    -51.49531589 </i>
    <i name="e_wo_entrp">    -51.49531589 </i>
    <i name="e_0_energy">    -51.49531589 </i>
   </energy>
  </scstep>
  <scstep>
   <time name="total">   13.10   13.21</time>
   <energy>
    <i name="e_fr_energy">    -51.49527418 </i>
    <i name="e_wo_entrp">    -51.49527418 </i>
    <i name="e_0_energy">    -51.49527418 </i>
   </energy>
  </scstep>
  <dynmat>
   <i name="unit" type="string">THz^2 </i>
   <varray name="hessian" >
    <v>      -5.88206236      -0.00320252       0.05360799       0.03701636       0.00015492       0.00881427      -0.12324646       0.03091135       0.15969397      -0.00062351       0.03215660      -0.02236457      -0.12325790      -0.03062619       0.15970094      -0.00061860      -0.03185269      -0.02238952       0.16074126       0.12215238      -0.09129735       0.16077662      -0.16221387      -0.05096702       0.04537968       0.00016495      -0.00361965       0.04535538       0.00015154      -0.01846649       0.16076856      -0.12197415      -0.09130899       0.16077757       0.16249504      -0.05098299       1.41653721       1.43255831      -1.64769561       0.02387073      -0.04611946      -0.04761254       0.03406808       0.00002209      -0.07517313       0.02337382       0.00002087       0.01131404       1.41661378      -1.43278978      -1.64769199       0.02390554       0.04613195      -0.04757071      -0.00521026       0.00001555      -0.00392313       3.79881186       0.00004972       3.22115491       0.14525325       0.02138250       0.08378794      -0.02838601       0.00264926       0.01495752       0.14525036      -0.02140868       0.08378835      -0.02840009      -0.00263573       0.01494934 </v>
    <v>      -0.00320252      -5.39680754       0.01047380       0.00014065       0.02819716      -0.00045376      -0.03062190       0.21718453      -0.01496445      -0.03188716      -0.03618204      -0.01333256       0.03088596       0.21514068       0.01408007       0.03215969      -0.03821460       0.01242001       0.16250563      -0.02520591       0.10838379      -0.12192026      -0.02516688      -0.12706638       0.00015879      -0.00064979      -0.00045247       0.00014553      -0.00063668      -0.00044174      -0.16216901      -0.02320983      -0.10929059       0.12216554      -0.02314114       0.12621733       1.42310820       3.03781815      -2.81315440      -0.06507168       0.06660583       0.07120621       0.00019411       0.20851371      -0.00061046       0.00016839      -0.01292828      -0.00060498      -1.42278265       3.03823991       2.81194216       0.06544704       0.06662897      -0.07238923       0.00020180      -0.04108497      -0.00059969       0.00023828       0.53873672      -0.00057153      -0.01005593       0.00030868       0.03162554       0.00942248      -0.02523355      -0.00239136       0.01040723       0.00026010      -0.03282245      -0.00904783      -0.02520909       0.00121508 </v>
    <v>       0.05360799       0.01047380      -6.31420209       0.00877309      -0.00044427      -0.04719179       0.15965757       0.01400947      -0.27335917      -0.02241580       0.01242896      -0.10362516       0.15971505      -0.01491117      -0.27331654      -0.02236592      -0.01334736      -0.10364719      -0.05102675       0.12618726      -0.23424770      -0.09130931      -0.10928988      -0.23424445      -0.01849277      -0.00045560      -0.06048538      -0.00360560      -0.00045125      -0.06048049      -0.05100097      -0.12713423      -0.23427623      -0.09129160       0.10836775      -0.23426548      -1.67842265      -2.87959281       3.54110673      -0.05322017       0.06626999       0.04743408      -0.06466256       0.00001411       0.10447081       0.02919600      -0.00001963       0.02649588      -1.67847082       2.88013309       3.54107989      -0.05324286      -0.06633981       0.04743624      -0.00913462      -0.00005524       0.02842766       3.28468063      -0.00000693       3.49022202       0.08292144       0.04021035       0.06066326       0.01263818      -0.00531558       0.03395778       0.08293673      -0.04027448       0.06064570       0.01266444       0.00526704       0.03397435 </v>
    <v>       0.03701636       0.00014065       0.00877309      -5.88219656      -0.00316854       0.05350183      -0.00061319       0.03218192      -0.02238294      -0.12328169       0.03093597       0.15971872      -0.00061584      -0.03192110      -0.02239145      -0.12328662      -0.03065157       0.15966031       0.16077856      -0.16216873      -0.05096756       0.16077368       0.12212098      -0.09128040       0.04535933       0.00013682      -0.01849866       0.04538518       0.00013004      -0.00360249       0.16077580       0.16249820      -0.05102032       0.16077072      -0.12195314      -0.09131833       0.02395455      -0.04614489      -0.04758069       1.41663877       1.43255161      -1.64768137       0.02339823      -0.00001091       0.01131076       0.03406700      -0.00001888      -0.07517567       0.02390280       0.04614058      -0.04756318       1.41661451      -1.43285267      -1.64766382       3.79885127       0.00000818       3.22113639      -0.00522854       0.00000281      -0.00394429      -0.02838344       0.00266428       0.01497580       0.14527055       0.02138269       0.08375787      -0.02838106      -0.00266836       0.01499133       0.14523948      -0.02137538       0.08381225 </v>
    <v>       0.00015492       0.02819716      -0.00044427      -0.00316854      -5.39690271       0.01051055      -0.03191501      -0.03620536      -0.01334835      -0.03061316       0.21708896      -0.01490779       0.03215783      -0.03821792       0.01240624       0.03089977       0.21512331       0.01400901      -0.12196982      -0.02520623      -0.12709159       0.16252594      -0.02519770       0.10834694       0.00015460      -0.00061146      -0.00046560       0.00011581      -0.00063033      -0.00047335       0.12215487      -0.02318705       0.12621159      -0.16217802      -0.02315432      -0.10927032      -0.06508638       0.06659642       0.07118583       1.42313083       3.03785499      -2.81313076       0.00018056      -0.01291030      -0.00061230       0.00021035       0.20852739      -0.00060299       0.06542888       0.06663288      -0.07239316      -1.42275690       3.03819206       2.81188772       0.00019444       0.53881946      -0.00061339       0.00018345      -0.04109712      -0.00060225       0.00940493      -0.02522963      -0.00240728      -0.01004897       0.00026179       0.03160867      -0.00903527      -0.02527467       0.00120562       0.01042262       0.00025695      -0.03281663 </v>
    <v>       0.00881427      -0.00045376      -0.04719179       0.05350183       0.01051055      -6.31436081      -0.02241541       0.01244403      -0.10363602       0.15971943       0.01403164      -0.27333259      -0.02237060      -0.01334477      -0.10363655       0.15969379      -0.01489957      -0.27333926      -0.09128769      -0.10928992      -0.23425327      -0.05102288       0.12626053      -0.23423360      -0.00359522      -0.00045391      -0.06046795      -0.01849750      -0.00045159      -0.06041486      -0.09130962       0.10839702      -0.23424380      -0.05103481      -0.12711029      -0.23422967      -0.05322365       0.06624031       0.04745788      -1.67844906      -2.87962990       3.54113385       0.02922437      -0.00003997       0.02650800      -0.06464260      -0.00000553       0.10445564      -0.05322756      -0.06631959       0.04743950      -1.67847719       2.88012928       3.54106724       3.28469470      -0.00004140       3.49017744      -0.00916049      -0.00000741       0.02843839       0.01265943      -0.00534901       0.03394780       0.08292325       0.04022461       0.06063151       0.01266377       0.00526667       0.03396959       0.08291771      -0.04026973       0.06063065 </v>
    <v>      -0.12324646      -0.03062190       0.15965757      -0.00061319      -0.03191501      -0.02241541      -6.03739983      -0.00289634       0.05372274       0.04380103       0.00008630       0.00878388      -0.12035790       0.03070131       0.15968745       0.00276205       0.03218961      -0.02239613       0.16414374      -0.12191434      -0.09133225       0.16417498       0.16249204      -0.05102280       0.16080336       0.12214349      -0.09129720       0.16076112      -0.16218018      -0.05099863       0.05211508       0.00014664      -0.00361774       0.05212099       0.00010047      -0.01849369       1.42101359      -1.43281681      -1.64775074       0.02832752       0.04614395      -0.04756947       1.42108500       1.43256267      -1.64772073       0.02840254      -0.04613373      -0.04755674       0.03845776       0.00001827      -0.07520992       0.02774879       0.00002547       0.01131553       0.14972832      -0.02139573       0.08375939      -0.02390732      -0.00266501       0.01494473      -0.00082854       0.00000503      -0.00394074       3.80328838       0.00002804       3.22124400       0.14966599       0.02140971       0.08375669      -0.02399255       0.00267909       0.01495455 </v>
    <v>       0.03091135       0.21718453       0.01400947       0.03218192      -0.03620536       0.01244403      -0.00289634      -5.76661538       0.01019293       0.00011064       0.04422092      -0.00043384      -0.03044566       0.22539070      -0.01519406      -0.03190539      -0.03022193      -0.01338192      -0.16218374      -0.01718116      -0.10926494       0.12214404      -0.01718858       0.12624957       0.16249924      -0.02321788       0.10838297      -0.12191948      -0.02315012      -0.12709737       0.00014200       0.01533610      -0.00046811       0.00013783       0.01533592      -0.00045296      -1.42284573       3.04857964       2.81198281       0.06541987       0.07710815      -0.07239580       1.42313894       3.04838560      -2.81311813      -0.06508502       0.07721895       0.07124420       0.00015426       0.21881963      -0.00058428       0.00015216      -0.00260037      -0.00055232       0.01041203       0.01092020      -0.03276476      -0.00907719      -0.01459710       0.00123276       0.00015276      -0.03084400      -0.00060071       0.00021703       0.54924558      -0.00054783      -0.01002309       0.01075052       0.03161343       0.00942430      -0.01474677      -0.00239066 </v>
    <v>       0.15969397      -0.01496445      -0.27335917      -0.02238294      -0.01334835      -0.10363602       0.05372274       0.01019293      -6.52408370       0.00880202      -0.00047070      -0.03801947       0.15964752       0.01429724      -0.26915164      -0.02235657       0.01242976      -0.09907429      -0.05100518      -0.12710626      -0.22968385      -0.09130664       0.10838693      -0.22967974      -0.05099445       0.12626510      -0.23422346      -0.09130067      -0.10927929      -0.23425297      -0.01850188      -0.00045808      -0.05134631      -0.00362872      -0.00042701      -0.05130531      -1.67849572       2.88015127       3.54704476      -0.05320648      -0.06633018       0.05344031      -1.67844325      -2.87965734       3.54688663      -0.05320281       0.06627263       0.05318022      -0.06466665       0.00001325       0.11065848       0.02922071      -0.00003045       0.03271341       0.08292946      -0.04023726       0.06639471       0.01265290       0.00528259       0.03972630      -0.00916405       0.00000500       0.03464574       3.28467411       0.00000355       3.49643011       0.08292387       0.04018739       0.06660698       0.01267362      -0.00531825       0.03995070 </v>
    <v>      -0.00062351      -0.03188716      -0.02241580      -0.12328169      -0.03061316       0.15971943       0.04380103       0.00011064       0.00880202      -6.03751695      -0.00293060       0.05376241       0.00280599       0.03221739      -0.02236983      -0.12040984       0.03070412       0.15963041       0.16417238       0.16251800      -0.05096742       0.16417425      -0.12194042      -0.09132872       0.16078631      -0.16216097      -0.05098276       0.16078888       0.12212936      -0.09133115       0.05211313       0.00012567      -0.01848239       0.05211048       0.00013155      -0.00359777       0.02839283       0.04614117      -0.04758795       1.42099087      -1.43278324      -1.64770307       0.02835536      -0.04613097      -0.04761447       1.42110126       1.43254842      -1.64773633       0.02775915      -0.00001391       0.01131028       0.03849265       0.00000368      -0.07519189      -0.02391809      -0.00265521       0.01493831       0.14975600      -0.02138865       0.08378220       3.80334132      -0.00000949       3.22126571      -0.00080834       0.00000709      -0.00395698      -0.02395508       0.00271704       0.01496091       0.14968703       0.02142175       0.08376537 </v>
    <v>       0.03215660      -0.03618204       0.01242896       0.03093597       0.21708896       0.01403164       0.00008630       0.04422092      -0.00047070      -0.00293060      -5.76658610       0.01009122      -0.03188651      -0.03021789      -0.01334249      -0.03043586       0.22537483      -0.01523054       0.12208776      -0.01724933       0.12620777      -0.16217241      -0.01721729      -0.10927597      -0.12192767      -0.02322183      -0.12711730       0.16243683      -0.02317350       0.10837791       0.00016318       0.01536176      -0.00044534       0.00011346       0.01533004      -0.00041810       0.06543786       0.07712057      -0.07236990      -1.42282031       3.04859585       2.81197019      -0.06508361       0.07725049       0.07124985       1.42318826       3.04839105      -2.81308998       0.00015863      -0.00257463      -0.00054799       0.00017715       0.21884463      -0.00056137      -0.00906196      -0.01461510       0.00125169       0.01037728       0.01093159      -0.03277674       0.00019945       0.54925428      -0.00054353       0.00018515      -0.03080141      -0.00056114       0.00943467      -0.01472765      -0.00242568      -0.01005621       0.01074769       0.03162567 </v>
    <v>      -0.02236457      -0.01333256      -0.10362516       0.15971872      -0.01490779      -0.27333259       0.00878388      -0.00043384      -0.03801947       0.05376241       0.01009122      -6.52427107      -0.02235925       0.01244453      -0.09907557       0.15968409       0.01428191      -0.26915584      -0.09130720       0.10840669      -0.22967448      -0.05105624      -0.12709850      -0.22969313      -0.09130055      -0.10930865      -0.23425787      -0.05099498       0.12622228      -0.23424551      -0.00362741      -0.00044776      -0.05131965      -0.01850530      -0.00045687      -0.05132774      -0.05324250      -0.06634236       0.05341649      -1.67846256       2.88009473       3.54709265      -0.05321661       0.06628331       0.05319247      -1.67849272      -2.87964133       3.54688572       0.02920602       0.00000847       0.03271891      -0.06467634       0.00000064       0.11065711       0.01265562       0.00528415       0.03972983       0.08289091      -0.04023031       0.06640218       3.28470829      -0.00000988       3.49641943      -0.00917083      -0.00001789       0.03465742       0.01264387      -0.00535789       0.03992271       0.08291719       0.04022097       0.06664900 </v>
    <v>      -0.12325790       0.03088596       0.15971505      -0.00061584       0.03215783      -0.02237060      -0.12035790      -0.03044566       0.15964752       0.00280599      -0.03188651      -0.02235925      -6.03731767      -0.00360432       0.05370366       0.04378065       0.00014862       0.00879346       0.05211958       0.00015751      -0.00360825       0.05210296       0.00016621      -0.01849495       0.16073298      -0.12190824      -0.09131633       0.16077661       0.16250385      -0.05100384       0.16415507       0.12216659      -0.09131702       0.16415084      -0.16215560      -0.05100367       0.03838907       0.00001056      -0.07520089       0.02777337       0.00003046       0.01132915       1.42106640      -1.43277102      -1.64770635       0.02838616       0.04616351      -0.04759776       1.42099280       1.43259153      -1.64776659       0.02834616      -0.04611264      -0.04757546       0.14971710       0.02140428       0.08377187      -0.02392868       0.00267813       0.01493253       0.14969146      -0.02141169       0.08375801      -0.02394684      -0.00263731       0.01495810      -0.00079029       0.00001234      -0.00395533       3.80329530       0.00000075       3.22120664 </v>
    <v>      -0.03062619       0.21514068      -0.01491117      -0.03192110      -0.03821792      -0.01334477       0.03070131       0.22539070       0.01429724       0.03221739      -0.03021789       0.01244453      -0.00360432      -5.67310949       0.01085493       0.00016323       0.04016419      -0.00045604       0.00013017       0.01127619      -0.00047648       0.00017163       0.01127909      -0.00051462      -0.16219460      -0.02518067      -0.10927593       0.12214423      -0.02519606       0.12621496       0.16253711      -0.01721567       0.10836728      -0.12191350      -0.01721752      -0.12713001       0.00024269       0.21617989      -0.00063759       0.00019726      -0.00524926      -0.00066563      -1.42277875       3.04606016       2.81190330       0.06543679       0.07460699      -0.07242777       1.42325049       3.04555141      -2.81325922      -0.06507100       0.07442804       0.07118445      -0.01004360       0.00825018       0.03157269       0.00944249      -0.01725139      -0.00243354       0.01039205       0.00807949      -0.03280749      -0.00904968      -0.01743514       0.00117748       0.00020152      -0.03346354      -0.00065146       0.00023133       0.54650067      -0.00060834 </v>
    <v>       0.15970094       0.01408007      -0.27331654      -0.02239145       0.01240624      -0.10363655       0.15968745      -0.01519406      -0.26915164      -0.02236983      -0.01334249      -0.09907557       0.05370366       0.01085493      -6.52399227       0.00879020      -0.00047112      -0.03803072      -0.01849537      -0.00047419      -0.05134263      -0.00360617      -0.00045287      -0.05134188      -0.05095751      -0.12710933      -0.23425760      -0.09129739       0.10842886      -0.23424577      -0.05101935       0.12622448      -0.22966571      -0.09133179      -0.10928394      -0.22970084      -0.06462347      -0.00003187       0.11064095       0.02920163      -0.00003956       0.03271742      -1.67852322       2.88012134       3.54688207      -0.05320137      -0.06633928       0.05320428      -1.67848156      -2.87962804       3.54706584      -0.05322258       0.06629086       0.05344103       0.08294823       0.04019911       0.06639559       0.01265542      -0.00532789       0.03972289       0.08293028      -0.04024745       0.06660631       0.01266599       0.00524991       0.03995528      -0.00917280      -0.00004864       0.03463854       3.28468612      -0.00000342       3.49642741 </v>
    <v>      -0.00061860       0.03215969      -0.02236592      -0.12328662       0.03089977       0.15969379       0.00276205      -0.03190539      -0.02235657      -0.12040984      -0.03043586       0.15968409       0.04378065       0.00016323       0.00879020      -6.03746076      -0.00357101       0.05366594       0.05212070       0.00016120      -0.01846514       0.05212957       0.00018415      -0.00361142       0.16077614       0.16248847      -0.05101288       0.16077562      -0.12192804      -0.09131633       0.16417572      -0.16217631      -0.05103025       0.16416388       0.12213595      -0.09136383       0.02784986       0.00000702       0.01132255       0.03850134       0.00003635      -0.07519604       0.02838308       0.04612318      -0.04759028       1.42104328      -1.43283445      -1.64773692       0.02836499      -0.04614162      -0.04756881       1.42100449       1.43255448      -1.64773395      -0.02391778       0.00267944       0.01497425       0.14975485       0.02141801       0.08377903      -0.02395431      -0.00266556       0.01496824       0.14970085      -0.02140186       0.08375315       3.80329998       0.00002491       3.22121255      -0.00081128       0.00001932      -0.00396126 </v>
    <v>      -0.03185269      -0.03821460      -0.01334736      -0.03065157       0.21512331      -0.01489957       0.03218961      -0.03022193       0.01242976       0.03070412       0.22537483       0.01428191       0.00014862       0.04016419      -0.00047112      -0.00357101      -5.67325033       0.01098487       0.00017026       0.01128594      -0.00047326       0.00016917       0.01131076      -0.00047338       0.12217891      -0.02519296       0.12623852      -0.16216893      -0.02522134      -0.10929002      -0.12192094      -0.01721966      -0.12710625       0.16253204      -0.01718473       0.10834559       0.00021844      -0.00524658      -0.00062850       0.00024438       0.21617578      -0.00064924       0.06548919       0.07458321      -0.07241520      -1.42276024       3.04609796       2.81190488      -0.06504350       0.07442718       0.07118573       1.42321350       3.04555184      -2.81320264       0.00944436      -0.01724379      -0.00245269      -0.01004639       0.00826276       0.03156541      -0.00903280      -0.01740995       0.00122047       0.01038476       0.00807336      -0.03283496       0.00018135       0.54653198      -0.00062974       0.00020516      -0.03347119      -0.00067215 </v>
    <v>      -0.02238952       0.01242001      -0.10364719       0.15966031       0.01400901      -0.27333926      -0.02239613      -0.01338192      -0.09907429       0.15963041      -0.01523054      -0.26915584       0.00879346      -0.00045604      -0.03803072       0.05366594       0.01098487      -6.52408574      -0.00358769      -0.00047147      -0.05130770      -0.01849276      -0.00047471      -0.05133584      -0.09129838       0.10833579      -0.23424049      -0.05097945      -0.12711196      -0.23422498      -0.09130776      -0.10925010      -0.22968778      -0.05098408       0.12623446      -0.22970809       0.02916828      -0.00005014       0.03270142      -0.06470304      -0.00000622       0.11064708      -0.05320651      -0.06632465       0.05320755      -1.67848337       2.88005335       3.54689521      -0.05321456       0.06629481       0.05340591      -1.67845634      -2.87960476       3.54701043       0.01265697      -0.00533237       0.03972419       0.08290391       0.04018718       0.06640278       0.01265032       0.00531440       0.03993847       0.08291677      -0.04025465       0.06662132       3.28470104      -0.00003157       3.49645376      -0.00916562      -0.00002989       0.03467341 </v>
    <v>       0.16074126       0.16250563      -0.05102675       0.16077856      -0.12196982      -0.09128769       0.16414374      -0.16218374      -0.05100518       0.16417238       0.12208776      -0.09130720       0.05211958       0.00013017      -0.01849537       0.05212070       0.00017026      -0.00358769      -6.03724115      -0.00339297       0.05364632       0.04378218       0.00017074       0.00878556      -0.12325865       0.03085476       0.15970303      -0.00063246       0.03219819      -0.02238843      -0.12039919      -0.03042888       0.15966612       0.00276248      -0.03191195      -0.02239875       3.80329123       0.00000851       3.22125503      -0.00080675       0.00003376      -0.00392670      -0.02391946       0.00266829       0.01495823       0.14975062       0.02139017       0.08374616      -0.02395229      -0.00270178       0.01493770       0.14967412      -0.02142010       0.08375318       1.42106242      -1.43281155      -1.64775306       0.02833828       0.04614926      -0.04755069       1.42103998       1.43254040      -1.64773050       0.02834926      -0.04616608      -0.04756585       0.03843343       0.00001177      -0.07522312       0.02776610       0.00001816       0.01134861 </v>
    <v>       0.12215238      -0.02520591       0.12618726      -0.16216873      -0.02520623      -0.10928992      -0.12191434      -0.01718116      -0.12710626       0.16251800      -0.01724933       0.10840669       0.00015751       0.01127619      -0.00047419       0.00016120       0.01128594      -0.00047147      -0.00339297      -5.67334267       0.01084933       0.00016507       0.04014532      -0.00047433      -0.03058356       0.21513321      -0.01493673      -0.03188238      -0.03821297      -0.01333872       0.03074542       0.22538137       0.01426301       0.03220822      -0.03021316       0.01241094       0.00022857       0.54651041      -0.00063366       0.00021329      -0.03343435      -0.00065500       0.00943958      -0.01724514      -0.00246170      -0.01003619       0.00825478       0.03155040      -0.00905909      -0.01741648       0.00118979       0.01040070       0.00809479      -0.03283425      -1.42280117       3.04602923       2.81185539       0.06544453       0.07459057      -0.07244572       1.42325226       3.04557554      -2.81319371      -0.06509166       0.07443997       0.07118744       0.00023359       0.21616450      -0.00064752       0.00019151      -0.00523944      -0.00065603 </v>
    <v>      -0.09129735       0.10838379      -0.23424770      -0.05096756      -0.12709159      -0.23425327      -0.09133225      -0.10926494      -0.22968385      -0.05096742       0.12620777      -0.22967448      -0.00360825      -0.00047648      -0.05134263      -0.01846514      -0.00047326      -0.05130770       0.05364632       0.01084933      -6.52382851       0.00879395      -0.00049408      -0.03804346       0.15970013       0.01406292      -0.27335846      -0.02237430       0.01242495      -0.10363107       0.15965192      -0.01517328      -0.26915258      -0.02239234      -0.01336442      -0.09907715       3.28472026      -0.00003729       3.49638258      -0.00915562      -0.00002046       0.03465764       0.01264392      -0.00530508       0.03971939       0.08293772       0.04021146       0.06639672       0.01265634       0.00528928       0.03995439       0.08291033      -0.04024552       0.06661232      -1.67849772       2.88016253       3.54685387      -0.05321558      -0.06633223       0.05316662      -1.67852317      -2.87950583       3.54705379      -0.05323180       0.06629745       0.05341091      -0.06462652      -0.00003106       0.11062016       0.02920399      -0.00002537       0.03271525 </v>
    <v>       0.16077662      -0.12192026      -0.09130931       0.16077368       0.16252594      -0.05102288       0.16417498       0.12214404      -0.09130664       0.16417425      -0.16217241      -0.05105624       0.05210296       0.00017163      -0.00360617       0.05212957       0.00016917      -0.01849276       0.04378218       0.00016507       0.00879395      -6.03726671      -0.00356488       0.05376758      -0.00063398       0.03218436      -0.02238506      -0.12327067       0.03090718       0.15969969       0.00277188      -0.03192173      -0.02240073      -0.12041061      -0.03039302       0.15964491      -0.00083877       0.00004084      -0.00393532       3.80333201       0.00003334       3.22120737       0.14971388       0.02142319       0.08376405      -0.02393337       0.00267684       0.01496617       0.14967002      -0.02138346       0.08378089      -0.02396096      -0.00264300       0.01495126       0.02839668       0.04615055      -0.04757896       1.42105276      -1.43280143      -1.64772379       0.02833234      -0.04611886      -0.04757813       1.42103186       1.43254172      -1.64774073       0.02781185       0.00004115       0.01130847       0.03847302       0.00002556      -0.07521200 </v>
    <v>      -0.16221387      -0.02516688      -0.10928988       0.12212098      -0.02519770       0.12626053       0.16249204      -0.01718858       0.10838693      -0.12194042      -0.01721729      -0.12709850       0.00016621       0.01127909      -0.00045287       0.00018415       0.01131076      -0.00047471       0.00017074       0.04014532      -0.00049408      -0.00356488      -5.67336300       0.01078056      -0.03188787      -0.03823298      -0.01333928      -0.03065039       0.21514201      -0.01489928       0.03217361      -0.03024933       0.01245186       0.03069047       0.22542380       0.01427592       0.00022148      -0.03345215      -0.00065668       0.00018305       0.54651041      -0.00067753      -0.01003130       0.00826581       0.03158397       0.00942771      -0.01725893      -0.00245740       0.01041577       0.00808500      -0.03280474      -0.00906901      -0.01737970       0.00120473       0.06543067       0.07457025      -0.07243154      -1.42273185       3.04605557       2.81185237      -0.06503862       0.07444795       0.07117501       1.42326263       3.04560510      -2.81319331       0.00018675      -0.00525405      -0.00062210       0.00023644       0.21616370      -0.00064725 </v>
    <v>      -0.05096702      -0.12706638      -0.23424445      -0.09128040       0.10834694      -0.23423360      -0.05102280       0.12624957      -0.22967974      -0.09132872      -0.10927597      -0.22969313      -0.01849495      -0.00051462      -0.05134188      -0.00361142      -0.00047338      -0.05133584       0.00878556      -0.00047433      -0.03804346       0.05376758       0.01078056      -6.52379749      -0.02237925       0.01242237      -0.10365180       0.15968492       0.01403067      -0.27333116      -0.02239684      -0.01334873      -0.09907497       0.15965673      -0.01520486      -0.26916230      -0.00917437      -0.00005695       0.03465814       3.28466387      -0.00002988       3.49635485       0.08288144       0.04019493       0.06641689       0.01265350      -0.00533084       0.03967470       0.08290633      -0.04025220       0.06661640       0.01265870       0.00529883       0.03994733      -0.05324878      -0.06635309       0.05320930      -1.67850818       2.88013916       3.54692377      -0.05321440       0.06627337       0.05341228      -1.67848692      -2.87953918       3.54700348       0.02916692      -0.00005886       0.03270612      -0.06467583      -0.00002422       0.11062511 </v>
    <v>       0.04537968       0.00015879      -0.01849277       0.04535933       0.00015460      -0.00359522       0.16080336       0.16249924      -0.05099445       0.16078631      -0.12192767      -0.09130055       0.16073298      -0.16219460      -0.05095751       0.16077614       0.12217891      -0.09129838      -0.12325865      -0.03058356       0.15970013      -0.00063398      -0.03188787      -0.02237925      -5.88232456      -0.00336525       0.05338437       0.03703364       0.00011799       0.00876318      -0.12328213       0.03090074       0.15968688      -0.00063378       0.03216712      -0.02238470      -0.02836717      -0.00263222       0.01497920       0.14522826      -0.02137529       0.08379668       3.79888177       0.00001709       3.22114664      -0.00518607       0.00003538      -0.00393245      -0.02838898       0.00266066       0.01499651       0.14522822       0.02138637       0.08376650       0.03406368       0.00000833      -0.07520955       0.02336239       0.00001325       0.01135367       1.41656167      -1.43276961      -1.64769829       0.02392434       0.04613462      -0.04758259       1.41662382       1.43252022      -1.64772455       0.02391092      -0.04613292      -0.04759323 </v>
    <v>       0.00016495      -0.00064979      -0.00045560       0.00013682      -0.00061146      -0.00045391       0.12214349      -0.02321788       0.12626510      -0.16216097      -0.02322183      -0.10930865      -0.12190824      -0.02518067      -0.12710933       0.16248847      -0.02519296       0.10833579       0.03085476       0.21513321       0.01406292       0.03218436      -0.03823298       0.01242237      -0.00336525      -5.39660862       0.01055008       0.00017359       0.02818351      -0.00045609      -0.03064327       0.21718747      -0.01497296      -0.03191298      -0.03620619      -0.01334916      -0.00903683      -0.02526098       0.00120005       0.01044778       0.00026916      -0.03280480       0.00016582       0.53877379      -0.00061496       0.00019683      -0.04108717      -0.00059636       0.00942271      -0.02520490      -0.00240036      -0.01005165       0.00027275       0.03159472       0.00019036       0.20850229      -0.00057848       0.00019344      -0.01292678      -0.00061219      -1.42279888       3.03819326       2.81195669       0.06544468       0.06662056      -0.07241131       1.42318224       3.03786087      -2.81315256      -0.06506672       0.06661438       0.07117845 </v>
    <v>      -0.00361965      -0.00045247      -0.06048538      -0.01849866      -0.00046560      -0.06046795      -0.09129720       0.10838297      -0.23422346      -0.05098276      -0.12711730      -0.23425787      -0.09131633      -0.10927593      -0.23425760      -0.05101288       0.12623852      -0.23424049       0.15970303      -0.01493673      -0.27335846      -0.02238506      -0.01333928      -0.10365180       0.05338437       0.01055008      -6.31412784       0.00881143      -0.00044202      -0.04716671       0.15971524       0.01399432      -0.27335918      -0.02237615       0.01240777      -0.10363694       0.01269157       0.00525803       0.03396880       0.08290665      -0.04025792       0.06062186       3.28466020       0.00000256       3.49020525      -0.00914506      -0.00003013       0.02842611       0.01265402      -0.00533483       0.03394773       0.08291324       0.04021458       0.06063044      -0.06464928      -0.00001039       0.10445338       0.02921765      -0.00003449       0.02648890      -1.67850904       2.88012139       3.54114999      -0.05322594      -0.06633896       0.04742429      -1.67849879      -2.87958049       3.54115291      -0.05321461       0.06627033       0.04741467 </v>
    <v>       0.04535538       0.00014553      -0.00360560       0.04538518       0.00011581      -0.01849750       0.16076112      -0.12191948      -0.09130067       0.16078888       0.16243683      -0.05099498       0.16077661       0.12214423      -0.09129739       0.16077562      -0.16216893      -0.05097945      -0.00063246      -0.03188238      -0.02237430      -0.12327067      -0.03065039       0.15968492       0.03703364       0.00017359       0.00881143      -5.88238001      -0.00308691       0.05346225      -0.00060791       0.03218308      -0.02239716      -0.12326612       0.03090921       0.15966240       0.14526846      -0.02140847       0.08376501      -0.02842110      -0.00264716       0.01494581      -0.00520256      -0.00000329      -0.00393885       3.79886747       0.00006377       3.22114503       0.14524770       0.02139943       0.08376843      -0.02841818       0.00265892       0.01493605       0.02340583       0.00001723       0.01131060       0.03406775       0.00000693      -0.07521961       0.02388590       0.04615223      -0.04756273       1.41659165      -1.43278964      -1.64768881       0.02390971      -0.04614071      -0.04754324       1.41659664       1.43257656      -1.64769187 </v>
    <v>       0.00015154      -0.00063668      -0.00045125       0.00013004      -0.00063033      -0.00045159      -0.16218018      -0.02315012      -0.10927929       0.12212936      -0.02317350       0.12622228       0.16250385      -0.02519606       0.10842886      -0.12192804      -0.02522134      -0.12711196       0.03219819      -0.03821297       0.01242495       0.03090718       0.21514201       0.01403067       0.00011799       0.02818351      -0.00044202      -0.00308691      -5.39686857       0.01041982      -0.03190211      -0.03619025      -0.01331648      -0.03062886       0.21714400      -0.01493452       0.01039698       0.00026755      -0.03277402      -0.00906704      -0.02524363       0.00122150       0.00018319      -0.04108608      -0.00061754       0.00016591       0.53877330      -0.00059093      -0.01004994       0.00027096       0.03162619       0.00941491      -0.02521874      -0.00240498       0.00016233      -0.01290418      -0.00058127       0.00017751       0.20852593      -0.00057325       0.06544078       0.06659391      -0.07239902      -1.42276875       3.03821506       2.81190436      -0.06508167       0.06661917       0.07120436       1.42319744       3.03793740      -2.81315509 </v>
    <v>      -0.01846649      -0.00044174      -0.06048049      -0.00360249      -0.00047335      -0.06041486      -0.05099863      -0.12709737      -0.23425297      -0.09133115       0.10837791      -0.23424551      -0.05100384       0.12621496      -0.23424577      -0.09131633      -0.10929002      -0.23422498      -0.02238843      -0.01333872      -0.10363107       0.15969969      -0.01489928      -0.27333116       0.00876318      -0.00045609      -0.04716671       0.05346225       0.01041982      -6.31446304      -0.02236241       0.01242280      -0.10361989       0.15967986       0.01404021      -0.27330670       0.08291898      -0.04026184       0.06064061       0.01267236       0.00523226       0.03394096      -0.00916321      -0.00000924       0.02843749       3.28466628      -0.00003147       3.49011570       0.08293780       0.04021187       0.06063994       0.01265995      -0.00530413       0.03396778       0.02923204      -0.00001924       0.02648449      -0.06463767      -0.00002293       0.10445890      -0.05324163      -0.06634837       0.04742892      -1.67847287       2.88011399       3.54106490      -0.05320415       0.06624929       0.04742479      -1.67849046      -2.87971163       3.54108118 </v>
    <v>       0.16076856      -0.16216901      -0.05100097       0.16077580       0.12215487      -0.09130962       0.05211508       0.00014200      -0.01850188       0.05211313       0.00016318      -0.00362741       0.16415507       0.16253711      -0.05101935       0.16417572      -0.12192094      -0.09130776      -0.12039919       0.03074542       0.15965192       0.00277188       0.03217361      -0.02239684      -0.12328213      -0.03064327       0.15971524      -0.00060791      -0.03190211      -0.02236241      -6.03719726      -0.00311048       0.05374739       0.04377037       0.00012855       0.00882170      -0.02394481       0.00268432       0.01496650       0.14967965       0.02140235       0.08377104      -0.02392355      -0.00265864       0.01493642       0.14972177      -0.02140823       0.08375613       3.80324816       0.00002394       3.22119542      -0.00082834      -0.00001818      -0.00391757       1.42107516       1.43252137      -1.64769125       0.02835188      -0.04612477      -0.04758079       0.03846189       0.00000947      -0.07519862       0.02780831       0.00001473       0.01131948       1.42102270      -1.43278634      -1.64777268       0.02831286       0.04613980      -0.04759631 </v>
    <v>      -0.12197415      -0.02320983      -0.12713423       0.16249820      -0.02318705       0.10839702       0.00014664       0.01533610      -0.00045808       0.00012567       0.01536176      -0.00044776       0.12216659      -0.01721567       0.12622448      -0.16217631      -0.01721966      -0.10925010      -0.03042888       0.22538137      -0.01517328      -0.03192173      -0.03024933      -0.01334873       0.03090074       0.21718747       0.01399432       0.03218308      -0.03619025       0.01242280      -0.00311048      -5.76646865       0.01011142       0.00011785       0.04421533      -0.00043375       0.00942953      -0.01475664      -0.00237578      -0.01002295       0.01074589       0.03161043      -0.00908114      -0.01463576       0.00124525       0.01043716       0.01089822      -0.03274918       0.00019110       0.54914983      -0.00054631       0.00018704      -0.03082186      -0.00054744       1.42319404       3.04834653      -2.81307560      -0.06506820       0.07721623       0.07122940       0.00013391       0.21881639      -0.00054003       0.00016928      -0.00260436      -0.00056719      -1.42285982       3.04864581       2.81201514       0.06545253       0.07708079      -0.07236700 </v>
    <v>      -0.09130899      -0.10929059      -0.23427623      -0.05102032       0.12621159      -0.23424380      -0.00361774      -0.00046811      -0.05134631      -0.01848239      -0.00044534      -0.05131965      -0.09131702       0.10836728      -0.22966571      -0.05103025      -0.12710625      -0.22968778       0.15966612       0.01426301      -0.26915258      -0.02240073       0.01245186      -0.09907497       0.15968688      -0.01497296      -0.27335918      -0.02239716      -0.01331648      -0.10361989       0.05374739       0.01011142      -6.52391781       0.00880343      -0.00046575      -0.03805042       0.01263366      -0.00537409       0.03993783       0.08289968       0.04020069       0.06661699       0.01264783       0.00528038       0.03972369       0.08293440      -0.04023120       0.06639642       3.28467273      -0.00002583       3.49640199      -0.00917480      -0.00003261       0.03464650      -1.67849777      -2.87957110       3.54686881      -0.05322526       0.06624797       0.05316615      -0.06467253      -0.00003097       0.11061655       0.02917867      -0.00002160       0.03270511      -1.67854161       2.88007790       3.54705389      -0.05322928      -0.06634993       0.05341396 </v>
    <v>       0.16077757       0.12216554      -0.09129160       0.16077072      -0.16217802      -0.05103481       0.05212099       0.00013783      -0.00362872       0.05211048       0.00011346      -0.01850530       0.16415084      -0.12191350      -0.09133179       0.16416388       0.16253204      -0.05098408       0.00276248       0.03220822      -0.02239234      -0.12041061       0.03069047       0.15965673      -0.00063378      -0.03191298      -0.02237615      -0.12326612      -0.03062886       0.15967986       0.04377037       0.00011785       0.00880343      -6.03749468      -0.00288957       0.05377003       0.14969815       0.02139848       0.08378676      -0.02396159       0.00268593       0.01496668       0.14971400      -0.02141051       0.08380078      -0.02391860      -0.00267089       0.01496883      -0.00082300      -0.00000501      -0.00393390       3.80331487       0.00000819       3.22118865       0.02836787      -0.04613112      -0.04756762       1.42106755       1.43259043      -1.64771428       0.02778594      -0.00001614       0.01134387       0.03847431      -0.00000175      -0.07519639       0.02835236       0.04611700      -0.04758596       1.42102199      -1.43286912      -1.64774773 </v>
    <v>       0.16249504      -0.02314114       0.10836775      -0.12195314      -0.02315432      -0.12711029       0.00010047       0.01533592      -0.00042701       0.00013155       0.01533004      -0.00045687      -0.16215560      -0.01721752      -0.10928394       0.12213595      -0.01718473       0.12623446      -0.03191195      -0.03021316      -0.01336442      -0.03039302       0.22542380      -0.01520486       0.03216712      -0.03620619       0.01240777       0.03090921       0.21714400       0.01404021       0.00012855       0.04421533      -0.00046575      -0.00288957      -5.76672885       0.01014253      -0.01003820       0.01074497       0.03159597       0.00941636      -0.01473826      -0.00240011       0.01039388       0.01092390      -0.03276247      -0.00905751      -0.01460829       0.00123994       0.00017379      -0.03079025      -0.00057247       0.00018693       0.54923142      -0.00053120      -0.06506773       0.07723127       0.07123663       1.42313811       3.04840054      -2.81309515       0.00018105      -0.00258797      -0.00056250       0.00013937       0.21884355      -0.00055927       0.06542204       0.07710409      -0.07237606      -1.42286657       3.04855413       2.81199335 </v>
    <v>      -0.05098299       0.12621733      -0.23426548      -0.09131833      -0.10927032      -0.23422967      -0.01849369      -0.00045296      -0.05130531      -0.00359777      -0.00041810      -0.05132774      -0.05100367      -0.12713001      -0.22970084      -0.09136383       0.10834559      -0.22970809      -0.02239875       0.01241094      -0.09907715       0.15964491       0.01427592      -0.26916230      -0.02238470      -0.01334916      -0.10363694       0.15966240      -0.01493452      -0.27330670       0.00882170      -0.00043375      -0.03805042       0.05377003       0.01014253      -6.52410380       0.08290878       0.04021318       0.06660050       0.01263088      -0.00531844       0.03994995       0.08293305      -0.04024096       0.06640696       0.01262719       0.00527373       0.03972601      -0.00916193      -0.00000596       0.03462860       3.28466383      -0.00000205       3.49637763      -0.05322340       0.06627298       0.05321753      -1.67851300      -2.87960757       3.54692411       0.02921457      -0.00000445       0.03267820      -0.06464911      -0.00001661       0.11063873      -0.05322604      -0.06632620       0.05342072      -1.67847317       2.88001022       3.54702627 </v>
    <v>       1.41653721       1.42310820      -1.67842265       0.02395455      -0.06508638      -0.05322365       1.42101359      -1.42284573      -1.67849572       0.02839283       0.06543786      -0.05324250       0.03838907       0.00024269      -0.06462347       0.02784986       0.00021844       0.02916828       3.80329123       0.00022857       3.28472026      -0.00083877       0.00022148      -0.00917437      -0.02836717      -0.00903683       0.01269157       0.14526846       0.01039698       0.08291898      -0.02394481       0.00942953       0.01263366       0.14969815      -0.01003820       0.08290878      -9.41493518      -0.00038288       0.07148994       0.02977965       0.00004421       0.01158938      -0.20430166      -0.05461021       0.31029830      -0.03091244      -0.09878410      -0.03492995      -0.20436903       0.05465067       0.31027335      -0.03095819       0.09882613      -0.03493533       0.18231028      -0.21748496      -0.13094862       0.18229547       0.18431266      -0.14847948       0.18225178       0.21755792      -0.13096974       0.18221088      -0.18426362      -0.14844723       0.06002192       0.00004371      -0.03978558       0.06004105       0.00004405       0.00700524 </v>
    <v>       1.43255831       3.03781815      -2.87959281      -0.04614489       0.06659642       0.06624031      -1.43281681       3.04857964       2.88015127       0.04614117       0.07712057      -0.06634236       0.00001056       0.21617989      -0.00003187       0.00000702      -0.00524658      -0.00005014       0.00000851       0.54651041      -0.00003729       0.00004084      -0.03345215      -0.00005695      -0.00263222      -0.02526098       0.00525803      -0.02140847       0.00026755      -0.04026184       0.00268432      -0.01475664      -0.00537409       0.02139848       0.01074497       0.04021318      -0.00038288      -9.46565340       0.00056154       0.00004188       0.05871297      -0.00006001       0.05468729       0.29085761      -0.03348728       0.09882701      -0.03677495       0.04068377      -0.05463388       0.29074513       0.03340029      -0.09879874      -0.03698196      -0.04075853      -0.18426133      -0.05430196      -0.23587151       0.21757884      -0.05429410       0.23690572       0.18430287      -0.05450962       0.23582209      -0.21756257      -0.05449004      -0.23698549       0.00005118       0.01408393      -0.00006221       0.00001789       0.01407497      -0.00006226 </v>
    <v>      -1.64769561      -2.81315440       3.54110673      -0.04758069       0.07118583       0.04745788      -1.64775074       2.81198281       3.54704476      -0.04758795      -0.07236990       0.05341649      -0.07520089      -0.00063759       0.11064095       0.01132255      -0.00062850       0.03270142       3.22125503      -0.00063366       3.49638258      -0.00393532      -0.00065668       0.03465814       0.01497920       0.00120005       0.03396880       0.08376501      -0.03277402       0.06064061       0.01496650      -0.00237578       0.03993783       0.08378676       0.03159597       0.06660050       0.07148994       0.00056154     -11.93595724       0.01160822      -0.00005628      -0.00903774       0.31029290       0.03339491      -0.47307552      -0.03493125      -0.04074732      -0.11700338       0.31026982      -0.03345387      -0.47276425      -0.03491877       0.04068241      -0.11672513      -0.14843312      -0.23699175      -0.39892435      -0.13100245       0.23580068      -0.39893308      -0.14842125       0.23691005      -0.39864205      -0.13101565      -0.23586108      -0.39862554       0.00703256      -0.00005921      -0.02815066      -0.03976197      -0.00004285      -0.02814973 </v>
    <v>       0.02387073      -0.06507168      -0.05322017       1.41663877       1.42313083      -1.67844906       0.02832752       0.06541987      -0.05320648       1.42099087      -1.42282031      -1.67846256       0.02777337       0.00019726       0.02920163       0.03850134       0.00024438      -0.06470304      -0.00080675       0.00021329      -0.00915562       3.80333201       0.00018305       3.28466387       0.14522826       0.01044778       0.08290665      -0.02842110      -0.00906704       0.01267236       0.14967965      -0.01002295       0.08289968      -0.02396159       0.00941636       0.01263088       0.02977965       0.00004188       0.01160822      -9.41502112      -0.00039286       0.07155946      -0.03090291      -0.09879038      -0.03491909      -0.20432676      -0.05463110       0.31029208      -0.03095250       0.09881706      -0.03492761      -0.20437239       0.05465812       0.31028828       0.18234517       0.18430135      -0.14842207       0.18232704      -0.21754627      -0.13101974       0.18227970      -0.18428298      -0.14842380       0.18225375       0.21758581      -0.13101303       0.06002646       0.00003355       0.00699863       0.06004177       0.00004031      -0.03978357 </v>
    <v>      -0.04611946       0.06660583       0.06626999       1.43255161       3.03785499      -2.87962990       0.04614395       0.07710815      -0.06633018      -1.43278324       3.04859585       2.88009473       0.00003046      -0.00524926      -0.00003956       0.00003635       0.21617578      -0.00000622       0.00003376      -0.03343435      -0.00002046       0.00003334       0.54651041      -0.00002988      -0.02137529       0.00026916      -0.04025792      -0.00264716      -0.02524363       0.00523226       0.02140235       0.01074589       0.04020069       0.00268593      -0.01473826      -0.00531844       0.00004421       0.05871297      -0.00005628      -0.00039286      -9.46609772       0.00060628       0.09883198      -0.03678531       0.04068560       0.05465783       0.29085202      -0.03347864      -0.09879495      -0.03696976      -0.04073080      -0.05463614       0.29077346       0.03341259       0.21760440      -0.05428943       0.23694309      -0.18426715      -0.05427455      -0.23587641      -0.21758123      -0.05448275      -0.23698239       0.18429903      -0.05449450       0.23580666       0.00004571       0.01409367      -0.00004380       0.00002373       0.01408323      -0.00006364 </v>
    <v>      -0.04761254       0.07120621       0.04743408      -1.64768137      -2.81313076       3.54113385      -0.04756947      -0.07239580       0.05344031      -1.64770307       2.81197019       3.54709265       0.01132915      -0.00066563       0.03271742      -0.07519604      -0.00064924       0.11064708      -0.00392670      -0.00065500       0.03465764       3.22120737      -0.00067753       3.49635485       0.08379668      -0.03280480       0.06062186       0.01494581       0.00122150       0.03394096       0.08377104       0.03161043       0.06661699       0.01496668      -0.00240011       0.03994995       0.01158938      -0.00006001      -0.00903774       0.07155946       0.00060628     -11.93604487      -0.03492563      -0.04075393      -0.11702720       0.31029374       0.03339084      -0.47309276      -0.03491688       0.04068804      -0.11674727       0.31030280      -0.03346527      -0.47279147      -0.13101428       0.23578730      -0.39894039      -0.14843670      -0.23698776      -0.39894416      -0.13102798      -0.23586808      -0.39863248      -0.14843823       0.23689570      -0.39862858      -0.03978039      -0.00006975      -0.02814373       0.00700807      -0.00004823      -0.02814153 </v>
    <v>       0.03406808       0.00019411      -0.06466256       0.02339823       0.00018056       0.02922437       1.42108500       1.42313894      -1.67844325       0.02835536      -0.06508361      -0.05321661       1.42106640      -1.42277875      -1.67852322       0.02838308       0.06548919      -0.05320651      -0.02391946       0.00943958       0.01264392       0.14971388      -0.01003130       0.08288144       3.79888177       0.00016582       3.28466020      -0.00520256       0.00018319      -0.00916321      -0.02392355      -0.00908114       0.01264783       0.14971400       0.01039388       0.08293305      -0.20430166       0.05468729       0.31029290      -0.03090291       0.09883198      -0.03492563      -9.41759266       0.00009780       0.07152271       0.02991491       0.00001504       0.01160224      -0.20433966      -0.05465068       0.31030625      -0.03090309      -0.09881152      -0.03488737       0.06015612       0.00001711      -0.03976441       0.06013512       0.00003031       0.00701283       0.18230990      -0.21756953      -0.13098903       0.18234435       0.18429340      -0.14844770       0.18231275       0.21761038      -0.13097598       0.18234145      -0.18424657      -0.14842950 </v>
    <v>       0.00002209       0.20851371       0.00001411      -0.00001091      -0.01291030      -0.00003997       1.43256267       3.04838560      -2.87965734      -0.04613097       0.07725049       0.06628331      -1.43277102       3.04606016       2.88012134       0.04612318       0.07458321      -0.06632465       0.00266829      -0.01724514      -0.00530508       0.02142319       0.00826581       0.04019493       0.00001709       0.53877379       0.00000256      -0.00000329      -0.04108608      -0.00000924      -0.00265864      -0.01463576       0.00528038      -0.02141051       0.01092390      -0.04024096      -0.05461021       0.29085761       0.03339491      -0.09879038      -0.03678531      -0.04075393       0.00009780      -9.47491302      -0.00005457       0.00000746       0.05909892      -0.00003898       0.05465253       0.29086102      -0.03344593       0.09880680      -0.03678150       0.04069642       0.00001353       0.01448789      -0.00002739       0.00000065       0.01449760      -0.00002141      -0.18430173      -0.05428140      -0.23584531       0.21757505      -0.05429039       0.23690131       0.18430784      -0.05429076       0.23581016      -0.21758482      -0.05428154      -0.23700925 </v>
    <v>      -0.07517313      -0.00061046       0.10447081       0.01131076      -0.00061230       0.02650800      -1.64772073      -2.81311813       3.54688663      -0.04761447       0.07124985       0.05319247      -1.64770635       2.81190330       3.54688207      -0.04759028      -0.07241520       0.05320755       0.01495823      -0.00246170       0.03971939       0.08376405       0.03158397       0.06641689       3.22114664      -0.00061496       3.49020525      -0.00393885      -0.00061754       0.02843749       0.01493642       0.00124525       0.03972369       0.08380078      -0.03276247       0.06640696       0.31029830      -0.03348728      -0.47307552      -0.03491909       0.04068560      -0.11702720       0.07152271      -0.00005457     -11.92275647       0.01159484      -0.00002522      -0.00962211       0.31031498       0.03344370      -0.47306754      -0.03491816      -0.04071841      -0.11700464       0.00701685      -0.00003540      -0.02872949      -0.03977348      -0.00002472      -0.02874422      -0.14841480      -0.23699123      -0.39893698      -0.13100417       0.23581874      -0.39890169      -0.14843501       0.23690513      -0.39892673      -0.13099621      -0.23585826      -0.39889777 </v>
    <v>       0.02337382       0.00016839       0.02919600       0.03406700       0.00021035      -0.06464260       0.02840254      -0.06508502      -0.05320281       1.42110126       1.42318826      -1.67849272       0.02838616       0.06543679      -0.05320137       1.42104328      -1.42276024      -1.67848337       0.14975062      -0.01003619       0.08293772      -0.02393337       0.00942771       0.01265350      -0.00518607       0.00019683      -0.00914506       3.79886747       0.00016591       3.28466628       0.14972177       0.01043716       0.08293440      -0.02391860      -0.00905751       0.01262719      -0.03091244       0.09882701      -0.03493125      -0.20432676       0.05465783       0.31029374       0.02991491       0.00000746       0.01159484      -9.41785939       0.00002190       0.07148078      -0.03088332      -0.09879976      -0.03491868      -0.20431189      -0.05466191       0.31031072       0.06015826       0.00002081       0.00700479       0.06015320       0.00000458      -0.03977182       0.18234403       0.18428930      -0.14842549       0.18232014      -0.21756959      -0.13102658       0.18231439      -0.18427810      -0.14843836       0.18235005       0.21761183      -0.13101697 </v>
    <v>       0.00002087      -0.01292828      -0.00001963      -0.00001888       0.20852739      -0.00000553      -0.04613373       0.07721895       0.06627263       1.43254842       3.04839105      -2.87964133       0.04616351       0.07460699      -0.06633928      -1.43283445       3.04609796       2.88005335       0.02139017       0.00825478       0.04021146       0.00267684      -0.01725893      -0.00533084       0.00003538      -0.04108717      -0.00003013       0.00006377       0.53877330      -0.00003147      -0.02140823       0.01089822      -0.04023120      -0.00267089      -0.01460829       0.00527373      -0.09878410      -0.03677495      -0.04074732      -0.05463110       0.29085202       0.03339084       0.00001504       0.05909892      -0.00002522       0.00002190      -9.47496665       0.00004911       0.09880821      -0.03678486       0.04073203       0.05466983       0.29084927      -0.03345754       0.00001620       0.01449056      -0.00001101       0.00000480       0.01448673      -0.00002918       0.21758962      -0.05430627       0.23691621      -0.18429867      -0.05429185      -0.23583212      -0.21755420      -0.05429838      -0.23698480       0.18428866      -0.05429637       0.23580201 </v>
    <v>       0.01131404      -0.00060498       0.02649588      -0.07517567      -0.00060299       0.10445564      -0.04755674       0.07124420       0.05318022      -1.64773633      -2.81308998       3.54688572      -0.04759776      -0.07242777       0.05320428      -1.64773692       2.81190488       3.54689521       0.08374616       0.03155040       0.06639672       0.01496617      -0.00245740       0.03967470      -0.00393245      -0.00059636       0.02842611       3.22114503      -0.00059093       3.49011570       0.08375613      -0.03274918       0.06639642       0.01496883       0.00123994       0.03972601      -0.03492995       0.04068377      -0.11700338       0.31029208      -0.03347864      -0.47309276       0.01160224      -0.00003898      -0.00962211       0.07148078       0.00004911     -11.92262642      -0.03492142      -0.04074295      -0.11699876       0.31029111       0.03344217      -0.47307864      -0.03978230      -0.00002920      -0.02872849       0.00700581      -0.00000979      -0.02873545      -0.13103807       0.23582258      -0.39890164      -0.14841237      -0.23699180      -0.39892023      -0.13100373      -0.23587481      -0.39888883      -0.14841891       0.23692593      -0.39894575 </v>
    <v>       1.41661378      -1.42278265      -1.67847082       0.02390280       0.06542888      -0.05322756       0.03845776       0.00015426      -0.06466665       0.02775915       0.00015863       0.02920602       1.42099280       1.42325049      -1.67848156       0.02836499      -0.06504350      -0.05321456      -0.02395229      -0.00905909       0.01265634       0.14967002       0.01041577       0.08290633      -0.02838898       0.00942271       0.01265402       0.14524770      -0.01004994       0.08293780       3.80324816       0.00019110       3.28467273      -0.00082300       0.00017379      -0.00916193      -0.20436903      -0.05463388       0.31026982      -0.03095250      -0.09879495      -0.03491688      -0.20433966       0.05465253       0.31031498      -0.03088332       0.09880821      -0.03492142      -9.41491781       0.00052375       0.07148413       0.02978881      -0.00002824       0.01159859       0.18234460       0.21758307      -0.13100265       0.18232760      -0.18428324      -0.14842193       0.06003542      -0.00000674      -0.03977576       0.06003790      -0.00001028       0.00701625       0.18225974      -0.21759227      -0.13101841       0.18227580       0.18430098      -0.14843242 </v>
    <v>      -1.43278978       3.03823991       2.88013309       0.04614058       0.06663288      -0.06631959       0.00001827       0.21881963       0.00001325      -0.00001391      -0.00257463       0.00000847       1.43259153       3.04555141      -2.87962804      -0.04614162       0.07442718       0.06629481      -0.00270178      -0.01741648       0.00528928      -0.02138346       0.00808500      -0.04025220       0.00266066      -0.02520490      -0.00533483       0.02139943       0.00027096       0.04021187       0.00002394       0.54914983      -0.00002583      -0.00000501      -0.03079025      -0.00000596       0.05465067       0.29074513      -0.03345387       0.09881706      -0.03696976       0.04068804      -0.05465068       0.29086102       0.03344370      -0.09879976      -0.03678486      -0.04074295       0.00052375      -9.46592322      -0.00067579      -0.00001231       0.05870546      -0.00000101       0.18428029      -0.05428833       0.23582087      -0.21759112      -0.05427627      -0.23695362      -0.00001459       0.01407438      -0.00000284      -0.00001887       0.01409873       0.00001353      -0.18429833      -0.05447341      -0.23585590       0.21757171      -0.05450804       0.23689576 </v>
    <v>      -1.64769199       2.81194216       3.54107989      -0.04756318      -0.07239316       0.04743950      -0.07520992      -0.00058428       0.11065848       0.01131028      -0.00054799       0.03271891      -1.64776659      -2.81325922       3.54706584      -0.04756881       0.07118573       0.05340591       0.01493770       0.00118979       0.03995439       0.08378089      -0.03280474       0.06661640       0.01499651      -0.00240036       0.03394773       0.08376843       0.03162619       0.06063994       3.22119542      -0.00054631       3.49640199      -0.00393390      -0.00057247       0.03462860       0.31027335       0.03340029      -0.47276425      -0.03492761      -0.04073080      -0.11674727       0.31030625      -0.03344593      -0.47306754      -0.03491868       0.04073203      -0.11699876       0.07148413      -0.00067579     -11.93596055       0.01161080      -0.00000057      -0.00902903      -0.14842997       0.23694484      -0.39890891      -0.13102034      -0.23585068      -0.39892426       0.00701571      -0.00000924      -0.02814631      -0.03977978      -0.00001539      -0.02813940      -0.14842321      -0.23700761      -0.39864517      -0.13098619       0.23583660      -0.39862179 </v>
    <v>       0.02390554       0.06544704      -0.05324286       1.41661451      -1.42275690      -1.67847719       0.02774879       0.00015216       0.02922071       0.03849265       0.00017715      -0.06467634       0.02834616      -0.06507100      -0.05322258       1.42100449       1.42321350      -1.67845634       0.14967412       0.01040070       0.08291033      -0.02396096      -0.00906901       0.01265870       0.14522822      -0.01005165       0.08291324      -0.02841818       0.00941491       0.01265995      -0.00082834       0.00018704      -0.00917480       3.80331487       0.00018693       3.28466383      -0.03095819      -0.09879874      -0.03491877      -0.20437239      -0.05463614       0.31030280      -0.03090309       0.09880680      -0.03491816      -0.20431189       0.05466983       0.31029111       0.02978881      -0.00001231       0.01161080      -9.41512162       0.00052486       0.07155046       0.18233321      -0.18427488      -0.14844053       0.18235280       0.21758012      -0.13099729       0.06001639      -0.00001220       0.00701627       0.06003514      -0.00001236      -0.03977956       0.18228255       0.18429990      -0.14841774       0.18227384      -0.21757106      -0.13100666 </v>
    <v>       0.04613195       0.06662897      -0.06633981      -1.43285267       3.03819206       2.88012928       0.00002547      -0.00260037      -0.00003045       0.00000368       0.21884463       0.00000064      -0.04611264       0.07442804       0.06629086       1.43255448       3.04555184      -2.87960476      -0.02142010       0.00809479      -0.04024552      -0.00264300      -0.01737970       0.00529883       0.02138637       0.00027275       0.04021458       0.00265892      -0.02521874      -0.00530413      -0.00001818      -0.03082186      -0.00003261       0.00000819       0.54923142      -0.00000205       0.09882613      -0.03698196       0.04068241       0.05465812       0.29077346      -0.03346527      -0.09881152      -0.03678150      -0.04071841      -0.05466191       0.29084927       0.03344217      -0.00002824       0.05870546      -0.00000057       0.00052486      -9.46588640      -0.00059790      -0.21756981      -0.05429317      -0.23698766       0.18427272      -0.05430814       0.23583766      -0.00002049       0.01408171      -0.00001190      -0.00001457       0.01408845       0.00000340       0.21757067      -0.05450272       0.23695100      -0.18429336      -0.05450831      -0.23587781 </v>
    <v>      -0.04757071      -0.07238923       0.04743624      -1.64766382       2.81188772       3.54106724       0.01131553      -0.00055232       0.03271341      -0.07519189      -0.00056137       0.11065711      -0.04757546       0.07118445       0.05344103      -1.64773395      -2.81320264       3.54701043       0.08375318      -0.03283425       0.06661232       0.01495126       0.00120473       0.03994733       0.08376650       0.03159472       0.06063044       0.01493605      -0.00240498       0.03396778      -0.00391757      -0.00054744       0.03464650       3.22118865      -0.00053120       3.49637763      -0.03493533      -0.04075853      -0.11672513       0.31028828       0.03341259      -0.47279147      -0.03488737       0.04069642      -0.11700464       0.31031072      -0.03345754      -0.47307864       0.01159859      -0.00000101      -0.00902903       0.07155046      -0.00059790     -11.93608785      -0.13101788      -0.23582337      -0.39892466      -0.14843573       0.23693016      -0.39889953      -0.03977618      -0.00000162      -0.02815163       0.00700884       0.00000031      -0.02813134      -0.13103096       0.23579818      -0.39865552      -0.14841872      -0.23696185      -0.39864627 </v>
    <v>      -0.00521026       0.00020180      -0.00913462       3.79885127       0.00019444       3.28469470       0.14972832       0.01041203       0.08292946      -0.02391809      -0.00906196       0.01265562       0.14971710      -0.01004360       0.08294823      -0.02391778       0.00944436       0.01265697       1.42106242      -1.42280117      -1.67849772       0.02839668       0.06543067      -0.05324878       0.03406368       0.00019036      -0.06464928       0.02340583       0.00016233       0.02923204       1.42107516       1.42319404      -1.67849777       0.02836787      -0.06506773      -0.05322340       0.18231028      -0.18426133      -0.14843312       0.18234517       0.21760440      -0.13101428       0.06015612       0.00001353       0.00701685       0.06015826       0.00001620      -0.03978230       0.18234460       0.18428029      -0.14842997       0.18233321      -0.21756981      -0.13101788      -9.41772045      -0.00001993       0.07144434       0.02991645       0.00002755       0.01160654      -0.20432902      -0.05462452       0.31030591      -0.03090297      -0.09879681      -0.03490878      -0.20433267       0.05467713       0.31032121      -0.03089092       0.09883510      -0.03491384 </v>
    <v>       0.00001555      -0.04108497      -0.00005524       0.00000818       0.53881946      -0.00004140      -0.02139573       0.01092020      -0.04023726      -0.00265521      -0.01461510       0.00528415       0.02140428       0.00825018       0.04019911       0.00267944      -0.01724379      -0.00533237      -1.43281155       3.04602923       2.88016253       0.04615055       0.07457025      -0.06635309       0.00000833       0.20850229      -0.00001039       0.00001723      -0.01290418      -0.00001924       1.43252137       3.04834653      -2.87957110      -0.04613112       0.07723127       0.06627298      -0.21748496      -0.05430196      -0.23699175       0.18430135      -0.05428943       0.23578730       0.00001711       0.01448789      -0.00003540       0.00002081       0.01449056      -0.00002920       0.21758307      -0.05428833       0.23694484      -0.18427488      -0.05429317      -0.23582337      -0.00001993      -9.47483950      -0.00014705       0.00001613       0.05910479      -0.00002394       0.05464346       0.29088206      -0.03344206       0.09881384      -0.03676707       0.04070103      -0.05460199       0.29088598       0.03340608      -0.09878754      -0.03677248      -0.04075757 </v>
    <v>      -0.00392313      -0.00059969       0.02842766       3.22113639      -0.00061339       3.49017744       0.08375939      -0.03276476       0.06639471       0.01493831       0.00125169       0.03972983       0.08377187       0.03157269       0.06639559       0.01497425      -0.00245269       0.03972419      -1.64775306       2.81185539       3.54685387      -0.04757896      -0.07243154       0.05320930      -0.07520955      -0.00057848       0.10445338       0.01131060      -0.00058127       0.02648449      -1.64769125      -2.81307560       3.54686881      -0.04756762       0.07123663       0.05321753      -0.13094862      -0.23587151      -0.39892435      -0.14842207       0.23694309      -0.39894039      -0.03976441      -0.00002739      -0.02872949       0.00700479      -0.00001101      -0.02872849      -0.13100265       0.23582087      -0.39890891      -0.14844053      -0.23698766      -0.39892466       0.07144434      -0.00014705     -11.92273126       0.01160193      -0.00002168      -0.00964358       0.31028894       0.03343018      -0.47307894      -0.03491449      -0.04073264      -0.11702376       0.31030281      -0.03348710      -0.47311455      -0.03489331       0.04068675      -0.11701997 </v>
    <v>       3.79881186       0.00023828       3.28468063      -0.00522854       0.00018345      -0.00916049      -0.02390732      -0.00907719       0.01265290       0.14975600       0.01037728       0.08289091      -0.02392868       0.00944249       0.01265542       0.14975485      -0.01004639       0.08290391       0.02833828       0.06544453      -0.05321558       1.42105276      -1.42273185      -1.67850818       0.02336239       0.00019344       0.02921765       0.03406775       0.00017751      -0.06463767       0.02835188      -0.06506820      -0.05322526       1.42106755       1.42313811      -1.67851300       0.18229547       0.21757884      -0.13100245       0.18232704      -0.18426715      -0.14843670       0.06013512       0.00000065      -0.03977348       0.06015320       0.00000480       0.00700581       0.18232760      -0.21759112      -0.13102034       0.18235280       0.18427272      -0.14843573       0.02991645       0.00001613       0.01160193      -9.41735991      -0.00002594       0.07163211      -0.03089413      -0.09879384      -0.03491697      -0.20433527      -0.05465707       0.31028591      -0.03090787       0.09882532      -0.03493193      -0.20432816       0.05467415       0.31027784 </v>
    <v>       0.00004972       0.53873672      -0.00000693       0.00000281      -0.04109712      -0.00000741      -0.00266501      -0.01459710       0.00528259      -0.02138865       0.01093159      -0.04023031       0.00267813      -0.01725139      -0.00532789       0.02141801       0.00826276       0.04018718       0.04614926       0.07459057      -0.06633223      -1.43280143       3.04605557       2.88013916       0.00001325      -0.01292678      -0.00003449       0.00000693       0.20852593      -0.00002293      -0.04612477       0.07721623       0.06624797       1.43259043       3.04840054      -2.87960757       0.18431266      -0.05429410       0.23580068      -0.21754627      -0.05427455      -0.23698776       0.00003031       0.01449760      -0.00002472       0.00000458       0.01448673      -0.00000979      -0.18428324      -0.05427627      -0.23585068       0.21758012      -0.05430814       0.23693016       0.00002755       0.05910479      -0.00002168      -0.00002594      -9.47489864      -0.00017687       0.09881224      -0.03679601       0.04071807       0.05466077       0.29086355      -0.03345032      -0.09877824      -0.03677580      -0.04075950      -0.05466756       0.29087868       0.03340544 </v>
    <v>       3.22115491      -0.00057153       3.49022202      -0.00394429      -0.00060225       0.02843839       0.01494473       0.00123276       0.03972630       0.08378220      -0.03277674       0.06640218       0.01493253      -0.00243354       0.03972289       0.08377903       0.03156541       0.06640278      -0.04755069      -0.07244572       0.05316662      -1.64772379       2.81185237       3.54692377       0.01135367      -0.00061219       0.02648890      -0.07521961      -0.00057325       0.10445890      -0.04758079       0.07122940       0.05316615      -1.64771428      -2.81309515       3.54692411      -0.14847948       0.23690572      -0.39893308      -0.13101974      -0.23587641      -0.39894416       0.00701283      -0.00002141      -0.02874422      -0.03977182      -0.00002918      -0.02873545      -0.14842193      -0.23695362      -0.39892426      -0.13099729       0.23583766      -0.39889953       0.01160654      -0.00002394      -0.00964358       0.07163211      -0.00017687     -11.92251291      -0.03492388      -0.04073212      -0.11703609       0.31031206       0.03341598      -0.47308823      -0.03491565       0.04067080      -0.11703909       0.31029480      -0.03345878      -0.47308162 </v>
    <v>       0.14525325      -0.01005593       0.08292144      -0.02838344       0.00940493       0.01265943      -0.00082854       0.00015276      -0.00916405       3.80334132       0.00019945       3.28470829       0.14969146       0.01039205       0.08293028      -0.02395431      -0.00903280       0.01265032       1.42103998       1.42325226      -1.67852317       0.02833234      -0.06503862      -0.05321440       1.41656167      -1.42279888      -1.67850904       0.02388590       0.06544078      -0.05324163       0.03846189       0.00013391      -0.06467253       0.02778594       0.00018105       0.02921457       0.18225178       0.18430287      -0.14842125       0.18227970      -0.21758123      -0.13102798       0.18230990      -0.18430173      -0.14841480       0.18234403       0.21758962      -0.13103807       0.06003542      -0.00001459       0.00701571       0.06001639      -0.00002049      -0.03977618      -0.20432902       0.05464346       0.31028894      -0.03089413       0.09881224      -0.03492388      -9.41487283       0.00040137       0.07141980       0.02978094      -0.00001154       0.01160014      -0.20440377      -0.05463970       0.31028744      -0.03098080      -0.09881341      -0.03490573 </v>
    <v>       0.02138250       0.00030868       0.04021035       0.00266428      -0.02522963      -0.00534901       0.00000503      -0.03084400       0.00000500      -0.00000949       0.54925428      -0.00000988      -0.02141169       0.00807949      -0.04024745      -0.00266556      -0.01740995       0.00531440       1.43254040       3.04557554      -2.87950583      -0.04611886       0.07444795       0.06627337      -1.43276961       3.03819326       2.88012139       0.04615223       0.06659391      -0.06634837       0.00000947       0.21881639      -0.00003097      -0.00001614      -0.00258797      -0.00000445       0.21755792      -0.05450962       0.23691005      -0.18428298      -0.05448275      -0.23586808      -0.21756953      -0.05428140      -0.23699123       0.18428930      -0.05430627       0.23582258      -0.00000674       0.01407438      -0.00000924      -0.00001220       0.01408171      -0.00000162      -0.05462452       0.29088206       0.03343018      -0.09879384      -0.03679601      -0.04073212       0.00040137      -9.46577548      -0.00062417      -0.00000099       0.05870473       0.00001092       0.05466264       0.29076327      -0.03344125       0.09882603      -0.03698951       0.04067067 </v>
    <v>       0.08378794       0.03162554       0.06066326       0.01497580      -0.00240728       0.03394780      -0.00394074      -0.00060071       0.03464574       3.22126571      -0.00054353       3.49641943       0.08375801      -0.03280749       0.06660631       0.01496824       0.00122047       0.03993847      -1.64773050      -2.81319371       3.54705379      -0.04757813       0.07117501       0.05341228      -1.64769829       2.81195669       3.54114999      -0.04756273      -0.07239902       0.04742892      -0.07519862      -0.00054003       0.11061655       0.01134387      -0.00056250       0.03267820      -0.13096974       0.23582209      -0.39864205      -0.14842380      -0.23698239      -0.39863248      -0.13098903      -0.23584531      -0.39893698      -0.14842549       0.23691621      -0.39890164      -0.03977576      -0.00000284      -0.02814631       0.00701627      -0.00001190      -0.02815163       0.31030591      -0.03344206      -0.47307894      -0.03491697       0.04071807      -0.11703609       0.07141980      -0.00062417     -11.93574904       0.01160893      -0.00001076      -0.00903770       0.31029902       0.03339572      -0.47280058      -0.03492305      -0.04073124      -0.11672507 </v>
    <v>      -0.02838601       0.00942248       0.01263818       0.14527055      -0.01004897       0.08292325       3.80328838       0.00021703       3.28467411      -0.00080834       0.00018515      -0.00917083      -0.02394684      -0.00904968       0.01266599       0.14970085       0.01038476       0.08291677       0.02834926      -0.06509166      -0.05323180       1.42103186       1.42326263      -1.67848692       0.02392434       0.06544468      -0.05322594       1.41659165      -1.42276875      -1.67847287       0.02780831       0.00016928       0.02917867       0.03847431       0.00013937      -0.06464911       0.18221088      -0.21756257      -0.13101565       0.18225375       0.18429903      -0.14843823       0.18234435       0.21757505      -0.13100417       0.18232014      -0.18429867      -0.14841237       0.06003790      -0.00001887      -0.03977978       0.06003514      -0.00001457       0.00700884      -0.03090297       0.09881384      -0.03491449      -0.20433527       0.05466077       0.31031206       0.02978094      -0.00000099       0.01160893      -9.41513118       0.00056049       0.07160176      -0.03097781      -0.09879321      -0.03490244      -0.20439980      -0.05462857       0.31030537 </v>
    <v>       0.00264926      -0.02523355      -0.00531558       0.02138269       0.00026179       0.04022461       0.00002804       0.54924558       0.00000355       0.00000709      -0.03080141      -0.00001789      -0.00263731      -0.01743514       0.00524991      -0.02140186       0.00807336      -0.04025465      -0.04616608       0.07443997       0.06629745       1.43254172       3.04560510      -2.87953918       0.04613462       0.06662056      -0.06633896      -1.43278964       3.03821506       2.88011399       0.00001473      -0.00260436      -0.00002160      -0.00000175       0.21884355      -0.00001661      -0.18426362      -0.05449004      -0.23586108       0.21758581      -0.05449450       0.23689570       0.18429340      -0.05429039       0.23581874      -0.21756959      -0.05429185      -0.23699180      -0.00001028       0.01409873      -0.00001539      -0.00001236       0.01408845       0.00000031      -0.09879681      -0.03676707      -0.04073264      -0.05465707       0.29086355       0.03341598      -0.00001154       0.05870473      -0.00001076       0.00056049      -9.46605851      -0.00061136       0.09882647      -0.03697614       0.04068848       0.05461620       0.29076973      -0.03345890 </v>
    <v>       0.01495752      -0.00239136       0.03395778       0.08375787       0.03160867       0.06063151       3.22124400      -0.00054783       3.49643011      -0.00395698      -0.00056114       0.03465742       0.01495810       0.00117748       0.03995528       0.08375315      -0.03283496       0.06662132      -0.04756585       0.07118744       0.05341091      -1.64774073      -2.81319331       3.54700348      -0.04758259      -0.07241131       0.04742429      -1.64768881       2.81190436       3.54106490       0.01131948      -0.00056719       0.03270511      -0.07519639      -0.00055927       0.11063873      -0.14844723      -0.23698549      -0.39862554      -0.13101303       0.23580666      -0.39862858      -0.14844770       0.23690131      -0.39890169      -0.13102658      -0.23583212      -0.39892023       0.00701625       0.00001353      -0.02813940      -0.03977956       0.00000340      -0.02813134      -0.03490878       0.04070103      -0.11702376       0.31028591      -0.03345032      -0.47308823       0.01160014       0.00001092      -0.00903770       0.07160176      -0.00061136     -11.93597990      -0.03491599      -0.04073885      -0.11670740       0.31028684       0.03342833      -0.47278126 </v>
    <v>       0.14525036       0.01040723       0.08293673      -0.02838106      -0.00903527       0.01266377       0.14966599      -0.01002309       0.08292387      -0.02395508       0.00943467       0.01264387      -0.00079029       0.00020152      -0.00917280       3.80329998       0.00018135       3.28470104       0.03843343       0.00023359      -0.06462652       0.02781185       0.00018675       0.02916692       1.41662382       1.42318224      -1.67849879       0.02390971      -0.06508167      -0.05320415       1.42102270      -1.42285982      -1.67854161       0.02835236       0.06542204      -0.05322604       0.06002192       0.00005118       0.00703256       0.06002646       0.00004571      -0.03978039       0.18231275       0.18430784      -0.14843501       0.18231439      -0.21755420      -0.13100373       0.18225974      -0.18429833      -0.14842321       0.18228255       0.21757067      -0.13103096      -0.20433267      -0.05460199       0.31030281      -0.03090787      -0.09877824      -0.03491565      -0.20440377       0.05466264       0.31029902      -0.03097781       0.09882647      -0.03491599      -9.41492717      -0.00041886       0.07148745       0.02977836       0.00005417       0.01162284 </v>
    <v>      -0.02140868       0.00026010      -0.04027448      -0.00266836      -0.02527467       0.00526667       0.02140971       0.01075052       0.04018739       0.00271704      -0.01472765      -0.00535789       0.00001234      -0.03346354      -0.00004864       0.00002491       0.54653198      -0.00003157       0.00001177       0.21616450      -0.00003106       0.00004115      -0.00525405      -0.00005886       1.43252022       3.03786087      -2.87958049      -0.04614071       0.06661917       0.06624929      -1.43278634       3.04864581       2.88007790       0.04611700       0.07710409      -0.06632620       0.00004371       0.01408393      -0.00005921       0.00003355       0.01409367      -0.00006975       0.21761038      -0.05429076       0.23690513      -0.18427810      -0.05429838      -0.23587481      -0.21759227      -0.05447341      -0.23700761       0.18429990      -0.05450272       0.23579818       0.05467713       0.29088598      -0.03348710       0.09882532      -0.03677580       0.04067080      -0.05463970       0.29076327       0.03339572      -0.09879321      -0.03697614      -0.04073885      -0.00041886      -9.46608767       0.00054095       0.00003090       0.05870551      -0.00005955 </v>
    <v>       0.08378835      -0.03282245       0.06064570       0.01499133       0.00120562       0.03396959       0.08375669       0.03161343       0.06660698       0.01496091      -0.00242568       0.03992271      -0.00395533      -0.00065146       0.03463854       3.22121255      -0.00062974       3.49645376      -0.07522312      -0.00064752       0.11062016       0.01130847      -0.00062210       0.03270612      -1.64772455      -2.81315256       3.54115291      -0.04754324       0.07120436       0.04742479      -1.64777268       2.81201514       3.54705389      -0.04758596      -0.07237606       0.05342072      -0.03978558      -0.00006221      -0.02815066       0.00699863      -0.00004380      -0.02814373      -0.13097598       0.23581016      -0.39892673      -0.14843836      -0.23698480      -0.39888883      -0.13101841      -0.23585590      -0.39864517      -0.14841774       0.23695100      -0.39865552       0.31032121       0.03340608      -0.47311455      -0.03493193      -0.04075950      -0.11703909       0.31028744      -0.03344125      -0.47280058      -0.03490244       0.04068848      -0.11670740       0.07148745       0.00054095     -11.93588574       0.01160330      -0.00003969      -0.00902784 </v>
    <v>      -0.02840009      -0.00904783       0.01266444       0.14523948       0.01042262       0.08291771      -0.02399255       0.00942430       0.01267362       0.14968703      -0.01005621       0.08291719       3.80329530       0.00023133       3.28468612      -0.00081128       0.00020516      -0.00916562       0.02776610       0.00019151       0.02920399       0.03847302       0.00023644      -0.06467583       0.02391092      -0.06506672      -0.05321461       1.41659664       1.42319744      -1.67849046       0.02831286       0.06545253      -0.05322928       1.42102199      -1.42286657      -1.67847317       0.06004105       0.00001789      -0.03976197       0.06004177       0.00002373       0.00700807       0.18234145      -0.21758482      -0.13099621       0.18235005       0.18428866      -0.14841891       0.18227580       0.21757171      -0.13098619       0.18227384      -0.18429336      -0.14841872      -0.03089092      -0.09878754      -0.03489331      -0.20432816      -0.05466756       0.31029480      -0.03098080       0.09882603      -0.03492305      -0.20439980       0.05461620       0.31028684       0.02977836       0.00003090       0.01160330      -9.41481340      -0.00029341       0.07157846 </v>
    <v>      -0.00263573      -0.02520909       0.00526704      -0.02137538       0.00025695      -0.04026973       0.00267909      -0.01474677      -0.00531825       0.02142175       0.01074769       0.04022097       0.00000075       0.54650067      -0.00000342       0.00001932      -0.03347119      -0.00002989       0.00001816      -0.00523944      -0.00002537       0.00002556       0.21616370      -0.00002422      -0.04613292       0.06661438       0.06627033       1.43257656       3.03793740      -2.87971163       0.04613980       0.07708079      -0.06634993      -1.43286912       3.04855413       2.88001022       0.00004405       0.01407497      -0.00004285       0.00004031       0.01408323      -0.00004823      -0.18424657      -0.05428154      -0.23585826       0.21761183      -0.05429637       0.23692593       0.18430098      -0.05450804       0.23583660      -0.21757106      -0.05450831      -0.23696185       0.09883510      -0.03677248       0.04068675       0.05467415       0.29087868      -0.03345878      -0.09881341      -0.03698951      -0.04073124      -0.05462857       0.29076973       0.03342833       0.00005417       0.05870551      -0.00003969      -0.00029341      -9.46589522       0.00057277 </v>
    <v>       0.01494934       0.00121508       0.03397435       0.08381225      -0.03281663       0.06063065       0.01495455      -0.00239066       0.03995070       0.08376537       0.03162567       0.06664900       3.22120664      -0.00060834       3.49642741      -0.00396126      -0.00067215       0.03467341       0.01134861      -0.00065603       0.03271525      -0.07521200      -0.00064725       0.11062511      -0.04759323       0.07117845       0.04741467      -1.64769187      -2.81315509       3.54108118      -0.04759631      -0.07236700       0.05341396      -1.64774773       2.81199335       3.54702627       0.00700524      -0.00006226      -0.02814973      -0.03978357      -0.00006364      -0.02814153      -0.14842950      -0.23700925      -0.39889777      -0.13101697       0.23580201      -0.39894575      -0.14843242       0.23689576      -0.39862179      -0.13100666      -0.23587781      -0.39864627      -0.03491384      -0.04075757      -0.11701997       0.31027784       0.03340544      -0.47308162      -0.03490573       0.04067067      -0.11672507       0.31030537      -0.03345890      -0.47278126       0.01162284      -0.00005955      -0.00902784       0.07157846       0.00057277     -11.93613994 </v>
   </varray>
   <v name="eigenvalues"> -2.30584841E+001 -1.96276686E+001 -1.96276235E+001 -1.86869297E+001 -1.84314246E+001 -1.83919763E+001 -1.81436340E+001 -1.81435487E+001 -1.81157762E+001 -1.81157422E+001 -1.54724193E+001 -1.54574125E+001 -1.50217004E+001 -1.49689939E+001 -1.44479885E+001 -1.43670361E+001 -1.43156633E+001 -1.43156139E+001 -1.43054907E+001 -1.43053627E+001 -1.42930216E+001 -1.42734185E+001 -1.42713000E+001 -1.40877869E+001 -1.40877189E+001 -1.34713455E+001 -1.34713307E+001 -1.31971525E+001 -1.31724517E+001 -1.31238812E+001 -1.31036506E+001 -1.31035081E+001 -1.30954173E+001 -1.30953923E+001 -1.24237176E+001 -1.24045848E+001 -2.44127884E+000 -2.41894604E+000 -1.95115208E+000 -1.95105808E+000 -1.91420203E+000 -1.91412956E+000 -1.85149078E+000 -1.85141786E+000 -1.76636254E+000 -1.63186987E+000 -1.54786194E+000 -1.40350138E+000 -1.36808098E+000 -1.21819908E+000 -1.17134344E+000 -1.17120959E+000 -1.15243071E+000 -1.14430057E+000 -1.14417719E+000 -6.93044942E-001 -5.99682195E-001 -5.99003952E-001 -5.38537615E-001 -5.38469759E-001 -5.07555109E-001 -1.92933004E-001 -1.92801407E-001 -1.38037514E-001 -1.38014049E-001  1.46114964E-003  2.11066390E-003  4.18462017E-003  1.09239754E-001  1.89392242E-001  2.10656222E-001  2.10769777E-001</v>
   <varray name="eigenvectors" >
    <v>   1.59094544E-003  1.74286106E-004 -1.70845139E-001  1.58757149E-003  1.76448657E-004 -1.70849089E-001  1.54882269E-003  1.22897183E-004 -1.74116354E-001  1.55038230E-003  1.17621444E-004 -1.74121444E-001  1.55042067E-003  2.39970578E-004 -1.74119171E-001  1.54864288E-003  2.44905766E-004 -1.74117230E-001  1.54666198E-003  2.40576830E-004 -1.74110338E-001  1.54770284E-003  2.41565791E-004 -1.74113818E-001  1.58574329E-003  1.75919206E-004 -1.70843412E-001  1.59030838E-003  1.75977564E-004 -1.70844820E-001  1.54888196E-003  1.17493062E-004 -1.74112987E-001  1.54677881E-003  1.18816702E-004 -1.74117466E-001 -1.47318900E-003  6.22467577E-004  2.31141444E-001 -1.47653441E-003  6.22127065E-004  2.31151236E-001 -2.66118002E-003 -7.81593884E-005  2.30878098E-001 -2.65810061E-003 -8.53487440E-005  2.30870060E-001 -1.47591046E-003 -7.81480901E-004  2.31145720E-001 -1.47659894E-003 -7.82759976E-004  2.31151029E-001 -2.65410891E-003 -7.88885473E-005  2.30873124E-001 -2.66022181E-003 -7.89225849E-005  2.30871852E-001 -1.47069477E-003 -7.79538735E-004  2.31140327E-001 -1.47771513E-003 -7.80228218E-004  2.31143788E-001 -1.47346373E-003  6.23721641E-004  2.31142705E-001 -1.47599150E-003  6.18434475E-004  2.31148967E-001</v>
    <v>   6.94808725E-002  2.19909945E-004 -2.15829416E-001 -6.94937062E-002 -2.22150592E-004  2.15864131E-001  6.91691733E-002  4.60998517E-004 -2.25278207E-001 -6.91836788E-002 -4.56722453E-004  2.25294056E-001  6.91695551E-002  3.44000938E-005 -2.25276377E-001 -6.91832848E-002 -4.20743442E-005  2.25292159E-001 -6.48648200E-002 -1.51386133E-003  1.77393504E-003  6.48750645E-002  1.51759992E-003 -1.79955184E-003 -6.48549839E-002 -2.16067683E-005  2.47443089E-003  6.48666102E-002  2.08113887E-005 -2.51089199E-003 -6.48629188E-002  1.48296294E-003  1.76041325E-003  6.48792824E-002 -1.48928757E-003 -1.77143535E-003 -9.51951731E-002  3.16903213E-003  2.93791491E-001  9.52297147E-002 -3.15983662E-003 -2.93823098E-001 -9.66996119E-002 -1.26173115E-004  2.97195433E-001  9.67255789E-002  1.29997482E-004 -2.97201216E-001 -9.52039804E-002 -3.40561642E-003  2.93816963E-001  9.52236593E-002  3.40120917E-003 -2.93857570E-001 -1.78716234E-002  1.17200397E-005 -1.03587121E-001  1.78468107E-002 -5.91303108E-006  1.03596077E-001 -2.08519030E-002  2.33240903E-004 -1.10543939E-001  2.08279860E-002 -2.31321995E-004  1.10586967E-001 -2.08492743E-002 -1.82743458E-004 -1.10546401E-001  2.08271449E-002  1.78934620E-004  1.10578550E-001</v>
    <v>   6.48545536E-002  1.97123588E-005 -2.50454247E-003 -6.48574258E-002 -1.84948402E-005  2.48181844E-003  6.48765114E-002 -1.48277691E-003 -1.77321921E-003 -6.48681958E-002  1.48151386E-003  1.77401775E-003  6.48759366E-002  1.51732535E-003 -1.78063418E-003 -6.48716201E-002 -1.51427421E-003  1.77429514E-003  6.91782478E-002  3.00866825E-005 -2.25271880E-001 -6.91837432E-002 -3.92389838E-005  2.25272352E-001  6.94857956E-002  2.27077106E-004 -2.15850429E-001 -6.94924421E-002 -2.24903430E-004  2.15866739E-001  6.91728155E-002  4.50391382E-004 -2.25283100E-001 -6.91824602E-002 -4.49740458E-004  2.25280111E-001  2.08283211E-002  1.79868107E-004  1.10564403E-001 -2.08339077E-002 -1.86062497E-004 -1.10547271E-001  1.78553987E-002 -1.88395725E-005  1.03601140E-001 -1.78656195E-002  1.98984580E-005 -1.03599474E-001  2.08359371E-002 -2.26120808E-004  1.10575528E-001 -2.08382713E-002  2.27210841E-004 -1.10551924E-001 -9.67062042E-002 -1.20597028E-004  2.97194417E-001  9.67204446E-002  1.23188909E-004 -2.97181000E-001 -9.52117180E-002 -3.39616152E-003  2.93817890E-001  9.52216105E-002  3.39319608E-003 -2.93842212E-001 -9.52085473E-002  3.16311599E-003  2.93821026E-001  9.52171351E-002 -3.15373296E-003 -2.93833225E-001</v>
    <v>  -1.08024280E-001 -1.29153645E-004  1.18834358E-001 -1.08026259E-001 -1.42312547E-004  1.18819568E-001 -1.05798060E-001 -4.68027386E-003  1.41629666E-001 -1.05784547E-001 -4.65453762E-003  1.41621116E-001 -1.05770498E-001  4.23494860E-003  1.41717155E-001 -1.05773773E-001  4.21876774E-003  1.41637162E-001  1.05768236E-001 -4.24437847E-003 -1.41697035E-001  1.05775948E-001 -4.22678598E-003 -1.41664538E-001  1.08039182E-001  1.51417136E-004 -1.18817864E-001  1.08010531E-001  1.26567005E-004 -1.18847507E-001  1.05805071E-001  4.66474123E-003 -1.41638091E-001  1.05785515E-001  4.66935195E-003 -1.41612125E-001  1.33019956E-001 -4.86856380E-003 -1.80628517E-001  1.33001707E-001 -4.87213422E-003 -1.80653754E-001  1.29130582E-001  9.87180731E-005 -2.10382709E-001  1.29133798E-001  1.26926516E-004 -2.10279856E-001  1.33018280E-001  5.07554074E-003 -1.80791606E-001  1.33002201E-001  5.06216483E-003 -1.80748114E-001 -1.29140849E-001 -1.01937036E-004  2.10365630E-001 -1.29124382E-001 -1.11643730E-004  2.10314199E-001 -1.33012168E-001 -5.08212016E-003  1.80757264E-001 -1.33013340E-001 -5.05381856E-003  1.80775949E-001 -1.33006090E-001  4.87654591E-003  1.80681917E-001 -1.33022395E-001  4.85792226E-003  1.80615075E-001</v>
    <v>   1.17089066E-003 -8.53166633E-002  7.38323437E-003  1.16859950E-003 -8.53434178E-002  7.40078417E-003  3.86709068E-002  4.66481793E-002  1.87255629E-001  3.86571976E-002  4.66739082E-002  1.87268292E-001 -4.06610460E-002  4.16230816E-002 -1.93841876E-001 -4.06535272E-002  4.16386546E-002 -1.93855976E-001  4.06552231E-002 -4.16242078E-002  1.93820713E-001  4.06639634E-002 -4.16316095E-002  1.93862738E-001 -1.16653762E-003  8.53226614E-002 -7.38066318E-003 -1.17464879E-003  8.53388226E-002 -7.39367254E-003 -3.86535963E-002 -4.66647104E-002 -1.87232642E-001 -3.86605859E-002 -4.66617365E-002 -1.87278347E-001 -4.40723196E-002 -3.54501508E-002 -2.80200356E-001 -4.40804571E-002 -3.54475824E-002 -2.80272878E-001  1.85310948E-003  7.32574846E-002  9.84545818E-003  1.86394333E-003  7.32534564E-002  9.86131429E-003  4.30361570E-002 -3.95095809E-002  2.68952837E-001  4.30510773E-002 -3.95231150E-002  2.69004847E-001 -1.86440497E-003 -7.32361129E-002 -9.86476143E-003 -1.86007465E-003 -7.32720120E-002 -9.85166874E-003 -4.30539362E-002  3.94980947E-002 -2.68964459E-001 -4.30462882E-002  3.95193613E-002 -2.68994557E-001  4.40844290E-002  3.54484314E-002  2.80219730E-001  4.40687982E-002  3.54496261E-002  2.80253075E-001</v>
    <v>   3.79728352E-002  2.53372689E-003  2.24643240E-001  3.80003836E-002  2.50281685E-003  2.24716863E-001 -3.18784099E-002  7.63247524E-002 -1.07626219E-001 -3.19140272E-002  7.63455543E-002 -1.07731807E-001 -2.93877722E-002 -7.81795951E-002 -9.48956080E-002 -2.93651083E-002 -7.81771810E-002 -9.49049663E-002  2.93750525E-002  7.82063444E-002  9.48627171E-002  2.93772020E-002  7.81530634E-002  9.49387540E-002 -3.79818839E-002 -2.53128247E-003 -2.24683848E-001 -3.80127951E-002 -2.49421157E-003 -2.24677297E-001  3.19002997E-002 -7.63387704E-002  1.07696023E-001  3.18973545E-002 -7.63238468E-002  1.07657681E-001 -1.54893110E-002  6.31034243E-002 -1.63094820E-001 -1.55188676E-002  6.31842322E-002 -1.63147817E-001  5.71162876E-002 -2.85603860E-003  3.04615505E-001  5.71132224E-002 -2.90575175E-003  3.04688106E-001 -1.85836522E-002 -6.06740290E-002 -1.80862023E-001 -1.85705756E-002 -6.06988719E-002 -1.80840411E-001 -5.71340558E-002  2.89296768E-003 -3.04680851E-001 -5.70794475E-002  2.85057146E-003 -3.04604632E-001  1.85959633E-002  6.06649491E-002  1.80929986E-001  1.85622254E-002  6.06963578E-002  1.80759237E-001  1.54990171E-002 -6.31477728E-002  1.63104144E-001  1.55098346E-002 -6.31423314E-002  1.63133499E-001</v>
    <v>   1.19351656E-002 -5.29965821E-002  2.18159892E-002 -1.19544806E-002  5.29969396E-002 -2.18349976E-002  5.20182217E-002  1.97510043E-002  2.34021604E-001 -5.20256704E-002 -1.97652012E-002 -2.33982397E-001 -6.49614989E-002  3.50350860E-002 -2.55182287E-001  6.49501276E-002 -3.50283334E-002  2.55218532E-001  7.16432045E-002  5.96575052E-002 -9.19508721E-003 -7.16402274E-002 -5.96765571E-002  9.17008518E-003 -4.77016087E-004 -1.42505528E-001  2.42655234E-002  5.00884044E-004  1.42516222E-001 -2.42424896E-002 -7.11197585E-002  8.84461655E-002 -1.46703348E-002  7.11343170E-002 -8.84455100E-002  1.46256109E-002  5.29794516E-003 -8.06567112E-002 -1.85969473E-001 -5.27977935E-003  8.06463328E-002  1.85966843E-001 -8.88390148E-003  1.91682658E-001 -1.33434853E-002  8.88745600E-003 -1.91677297E-001  1.32612778E-002  4.17067162E-003 -1.12306589E-001  1.97548073E-001 -4.14602423E-003  1.12328198E-001 -1.97545616E-001  7.79204784E-003 -4.21520603E-002  4.53029265E-002 -7.79817321E-003  4.21502919E-002 -4.52272322E-002  8.87495610E-002  7.85081043E-003  2.70591581E-001 -8.87630122E-002 -7.85512300E-003 -2.70617827E-001 -9.64952270E-002  3.06778358E-002 -3.16694084E-001  9.64620453E-002 -3.06612791E-002  3.16713396E-001</v>
    <v>   6.25614025E-004  1.42542728E-001 -2.39006293E-002 -6.34258071E-004 -1.42523854E-001  2.38394747E-002  7.10625702E-002 -8.84842676E-002  1.44070466E-002 -7.10546495E-002  8.84426364E-002 -1.44158089E-002 -7.17029243E-002 -5.96738298E-002  9.04577397E-003  7.17193151E-002  5.96829443E-002 -8.99187252E-003 -6.49515087E-002  3.48106241E-002 -2.55323663E-001  6.49208924E-002 -3.48248203E-002  2.55260555E-001  1.18729853E-002 -5.29821473E-002  2.20004770E-002 -1.18634951E-002  5.29743723E-002 -2.19379737E-002  5.20746695E-002  1.99740035E-002  2.33939639E-001 -5.20803751E-002 -1.99423563E-002 -2.33929114E-001  9.65189777E-002 -3.04071316E-002  3.16763420E-001 -9.65064678E-002  3.04084377E-002 -3.16647869E-001 -7.86488458E-003  4.21271437E-002 -4.51787130E-002  7.84379966E-003 -4.21325844E-002  4.50990711E-002 -8.87323930E-002 -8.07739117E-003 -2.70722364E-001  8.87295955E-002  8.09799673E-003  2.70719204E-001 -8.73041051E-003  1.91700484E-001 -1.26609671E-002  8.75066040E-003 -1.91689028E-001  1.27347752E-002  4.07512394E-003 -1.12373104E-001  1.97213364E-001 -4.06574510E-003  1.12352640E-001 -1.97225438E-001  5.22268887E-003 -8.06240048E-002 -1.86279655E-001 -5.22975160E-003  8.06227862E-002  1.86189353E-001</v>
    <v>   1.07429916E-002 -1.58655327E-002 -1.95189481E-001 -1.07263041E-002  1.58640837E-002  1.95130233E-001 -1.45454613E-002 -1.17751643E-001  9.38776212E-002  1.45584202E-002  1.17727463E-001 -9.38867791E-002  3.04081984E-003  1.32825785E-001  9.80548375E-002 -3.01850016E-003 -1.32806833E-001 -9.80506431E-002 -4.95399833E-002  5.27317493E-002 -7.00409368E-002  4.95128504E-002 -5.27401490E-002  7.00399604E-002  1.02943304E-001  7.08349417E-003  2.02249905E-001 -1.02948381E-001 -7.09400219E-003 -2.02204220E-001 -6.19327140E-002 -6.07215359E-002 -1.26669995E-001  6.19083457E-002  6.07320892E-002  1.26671628E-001  2.59953185E-002 -8.65314686E-002  1.68964179E-001 -2.60086392E-002  8.65266006E-002 -1.68892414E-001 -7.40005304E-002 -5.73301610E-003 -3.96351766E-001  7.39820532E-002  5.72784672E-003  3.96317207E-001  4.77865111E-002  9.28443072E-002  2.33530950E-001 -4.78017281E-002 -9.28311949E-002 -2.33466057E-001 -7.22768345E-002 -2.17576430E-002 -8.76688464E-002  7.23044400E-002  2.17553061E-002  8.76834763E-002  3.79948017E-002 -1.31998724E-001  1.16686655E-002 -3.79803569E-002  1.31999993E-001 -1.17054571E-002  3.91799948E-002  1.54290818E-001  6.08097618E-002 -3.91661821E-002 -1.54278739E-001 -6.08670216E-002</v>
    <v>   1.02943049E-001  6.92901239E-003  2.02261666E-001 -1.02923397E-001 -6.91918918E-003 -2.02237428E-001 -6.20508474E-002 -6.06059899E-002 -1.26841742E-001  6.20559645E-002  6.06214085E-002  1.26817467E-001 -4.93906189E-002  5.27872027E-002 -6.99164763E-002  4.93895430E-002 -5.28055572E-002  6.98886661E-002 -2.96969836E-003 -1.32890246E-001 -9.76808531E-002  2.97212359E-003  1.32917708E-001  9.77257500E-002 -1.07467863E-002  1.60216569E-002  1.95082775E-001  1.07358029E-002 -1.60233579E-002 -1.95138774E-001  1.45253116E-002  1.17642944E-001 -9.41795124E-002 -1.45287337E-002 -1.17668286E-001  9.42247547E-002  3.90219041E-002  1.54369177E-001  6.04945916E-002 -3.90503878E-002 -1.54377960E-001 -6.05140862E-002 -7.22701976E-002 -2.19267055E-002 -8.75706744E-002  7.22868792E-002  2.19276489E-002  8.76505767E-002  3.80990555E-002 -1.31924083E-001  1.19281860E-002 -3.81183630E-002  1.31919148E-001 -1.19555416E-002  7.40005894E-002  5.50559514E-003  3.96288816E-001 -7.39774733E-002 -5.50467210E-003 -3.96380089E-001 -4.78594792E-002 -9.26753772E-002 -2.33907736E-001  4.78595269E-002  9.26981392E-002  2.33936470E-001 -2.59525061E-002  8.66109518E-002 -1.68458658E-001  2.59612290E-002 -8.66352190E-002  1.68488486E-001</v>
    <v>   1.52271990E-001  5.45545296E-002 -2.24275271E-002  1.52293787E-001  5.45487274E-002 -2.24290925E-002 -2.92234245E-002 -1.70259586E-001  4.07576436E-003 -2.92331732E-002 -1.70268583E-001  4.08652237E-003 -1.34483891E-001  1.02117996E-001  1.83783537E-002 -1.34488068E-001  1.02133483E-001  1.83719385E-002 -1.34487443E-001  1.02138403E-001  1.83866038E-002 -1.34485322E-001  1.02134915E-001  1.83810698E-002  1.52289224E-001  5.45498460E-002 -2.24353847E-002  1.52295495E-001  5.45567021E-002 -2.24242076E-002 -2.92138109E-002 -1.70259042E-001  4.07808597E-003 -2.92162213E-002 -1.70264932E-001  4.09631599E-003 -1.42444558E-002 -6.39590019E-003  2.56105364E-001 -1.42413461E-002 -6.40201255E-003  2.56112698E-001  2.82585890E-002 -1.93366935E-003 -3.07670836E-001  2.82626427E-002 -1.92537299E-003 -3.07700510E-001 -3.61294484E-004  2.47488284E-002  5.18583227E-002 -3.83555892E-004  2.47486549E-002  5.18775127E-002  2.82590338E-002 -1.95778435E-003 -3.07691725E-001  2.82838432E-002 -1.93667946E-003 -3.07678203E-001 -3.63602247E-004  2.47523612E-002  5.18822947E-002 -3.60048360E-004  2.47428669E-002  5.18790356E-002 -1.42408388E-002 -6.39526637E-003  2.56118812E-001 -1.42467737E-002 -6.40772925E-003  2.56115158E-001</v>
    <v>   5.85930256E-002 -1.45707435E-001 -7.50339868E-003  5.86033615E-002 -1.45712006E-001 -7.50425368E-003 -1.69695165E-001  3.04230993E-002  2.71416205E-002 -1.69707666E-001  3.04105996E-002  2.71212833E-002  1.06673742E-001  1.34234938E-001 -1.96055195E-002  1.06666438E-001  1.34247863E-001 -1.95810314E-002  1.06673302E-001  1.34237971E-001 -1.96000525E-002  1.06674628E-001  1.34241046E-001 -1.95860108E-002  5.85977835E-002 -1.45697119E-001 -7.50386421E-003  5.86145016E-002 -1.45708331E-001 -7.51510712E-003 -1.69677123E-001  3.04134497E-002  2.71376554E-002 -1.69702566E-001  3.04152591E-002  2.71393561E-002  1.89547584E-002 -2.56631074E-002 -2.07213796E-001  1.89394949E-002 -2.56468441E-002 -2.07203946E-001  9.73735236E-003  1.76859702E-002 -1.18193203E-001  9.74887080E-003  1.76604177E-002 -1.18216526E-001 -2.34186992E-002 -1.49251134E-002  3.25468051E-001 -2.33996242E-002 -1.49159651E-002  3.25486463E-001  9.73632918E-003  1.76769560E-002 -1.18195130E-001  9.75835132E-003  1.76712749E-002 -1.18203089E-001 -2.33836735E-002 -1.49332202E-002  3.25486885E-001 -2.34175543E-002 -1.49116970E-002  3.25484678E-001  1.89389655E-002 -2.56573363E-002 -2.07195361E-001  1.89534204E-002 -2.56652486E-002 -2.07196007E-001</v>
    <v>  -1.48411203E-003  2.28879000E-002  2.30985404E-004 -1.45231785E-003  2.28480051E-002  2.13110848E-004  1.18921325E-002 -1.42296485E-002  2.11356854E-001  1.18700862E-002 -1.42203238E-002  2.11357041E-001 -1.02453497E-002 -1.58604746E-002 -2.11597860E-001 -1.02440529E-002 -1.58301653E-002 -2.11585534E-001 -1.02570577E-002 -1.58256065E-002 -2.11569339E-001 -1.02409547E-002 -1.58531129E-002 -2.11587040E-001 -1.44732970E-003  2.28487155E-002  2.30446500E-004 -1.46567951E-003  2.28621182E-002  2.11490181E-004  1.18921448E-002 -1.42107488E-002  2.11341436E-001  1.18845982E-002 -1.42066463E-002  2.11382588E-001  1.90048647E-001 -1.15512236E-001  3.12153425E-002  1.90058987E-001 -1.15518417E-001  3.12044937E-002 -1.22275854E-004  2.40970590E-001  2.65963429E-003 -7.19402692E-005  2.40943670E-001  2.65445609E-003 -1.90161065E-001 -1.16283197E-001 -3.38897028E-002 -1.90221681E-001 -1.16250294E-001 -3.38517583E-002 -8.29654144E-005  2.40903932E-001  2.64874471E-003 -7.45887537E-005  2.40960079E-001  2.67691481E-003 -1.90173134E-001 -1.16246192E-001 -3.38471643E-002 -1.90187268E-001 -1.16247346E-001 -3.38607982E-002  1.90052299E-001 -1.15503935E-001  3.12077540E-002  1.90070238E-001 -1.15544301E-001  3.11968139E-002</v>
    <v>  -8.84205301E-003  9.21413667E-005 -2.43647441E-001 -8.82391807E-003  1.24374306E-004 -2.43667138E-001  4.46637113E-003  2.05809943E-002  1.21131451E-001  4.43033311E-003  2.05650569E-002  1.21143929E-001  5.71469501E-003 -1.91268088E-002  1.20880842E-001  5.70139670E-003 -1.91114585E-002  1.20867274E-001  5.71551831E-003 -1.90905175E-002  1.20843798E-001  5.71181547E-003 -1.91509227E-002  1.20854829E-001 -8.87611845E-003  1.40460903E-004 -2.43651200E-001 -8.86748334E-003  1.32026795E-004 -2.43660718E-001  4.42209319E-003  2.05461043E-002  1.21135318E-001  4.44635880E-003  2.05680888E-002  1.21127292E-001 -1.10712845E-001 -2.08160182E-001 -1.53026356E-002 -1.10734081E-001 -2.08210429E-001 -1.52840036E-002  2.19934521E-001 -4.06908954E-004  3.30815469E-002  2.19965763E-001 -3.81989296E-004  3.30401928E-002 -1.10780389E-001  2.06634689E-001 -1.31306748E-002 -1.10804187E-001  2.06614774E-001 -1.31348342E-002  2.19933693E-001 -3.68633005E-004  3.30147744E-002  2.19895428E-001 -3.59925905E-004  3.30678130E-002 -1.10795581E-001  2.06545257E-001 -1.31305195E-002 -1.10806329E-001  2.06610569E-001 -1.31864842E-002 -1.10719441E-001 -2.08185169E-001 -1.52864445E-002 -1.10744651E-001 -2.08184423E-001 -1.53026920E-002</v>
    <v>  -1.77736165E-001 -2.45171923E-003 -1.30544236E-003 -1.77745634E-001 -2.35148335E-003 -1.46231160E-003 -1.76764095E-001  2.57045892E-003 -1.54389349E-003 -1.76895860E-001  2.44639719E-003 -1.40749332E-003 -1.76525613E-001 -7.24240743E-003 -1.46019674E-003 -1.76707206E-001 -7.27013805E-003 -1.50609980E-003 -1.76566913E-001 -7.14613267E-003 -1.52589311E-003 -1.76668058E-001 -7.35241990E-003 -1.47205133E-003 -1.77742550E-001 -2.45087138E-003 -1.31013247E-003 -1.77829053E-001 -2.32891152E-003 -1.44523856E-003 -1.76853918E-001  2.44379565E-003 -1.45395003E-003 -1.76789132E-001  2.55159888E-003 -1.53731269E-003  2.28931796E-001  1.21342050E-003 -2.21788414E-003  2.28929455E-001  1.03619991E-003 -2.07487312E-003  2.25439758E-001  3.01915694E-003  9.92559671E-003  2.25766830E-001  3.20738215E-003  9.85726153E-003  2.28971329E-001  4.91481229E-003 -1.83908812E-003  2.29004115E-001  4.96372683E-003 -1.86044755E-003  2.25662824E-001  3.13314138E-003  9.83344960E-003  2.25441432E-001  3.09151164E-003  9.92542938E-003  2.28920509E-001  4.81685967E-003 -1.75714529E-003  2.29071317E-001  4.97825409E-003 -1.98048446E-003  2.29037002E-001  1.23179482E-003 -2.14110280E-003  2.28784973E-001  1.07640206E-003 -2.16034169E-003</v>
    <v>  -4.81446340E-004 -1.75322740E-001 -7.63824645E-004 -3.77444167E-004 -1.75390125E-001 -4.14264255E-004 -5.93106523E-003 -1.73954804E-001 -1.94627005E-003 -6.03123243E-003 -1.74380002E-001 -1.97851184E-003  1.34546056E-002 -1.74720890E-001  2.32103116E-003  1.35689932E-002 -1.74372219E-001  2.06695458E-003  1.37231346E-002 -1.74558693E-001  2.24631381E-003  1.34279632E-002 -1.74441207E-001  2.36637436E-003 -5.52744953E-004 -1.75471804E-001 -3.53884038E-004 -1.67435100E-004 -1.75387561E-001 -6.77162670E-004 -5.74221454E-003 -1.73970303E-001 -2.04788627E-003 -5.91064495E-003 -1.74287369E-001 -1.83283681E-003 -9.98461946E-003  2.28378178E-001 -1.48987679E-002 -9.84497271E-003  2.28895342E-001 -1.47428563E-002 -1.63126691E-003  2.31685403E-001  4.05741554E-003 -1.54734782E-003  2.31916345E-001  3.69002925E-003  2.09775754E-003  2.27776896E-001  1.10320298E-002  1.90548838E-003  2.27226411E-001  1.12925920E-002 -1.84366372E-003  2.31569770E-001  4.11911585E-003 -1.10527072E-003  2.31723196E-001  3.78114021E-003  2.27015321E-003  2.27409891E-001  1.12459742E-002  2.04516789E-003  2.27686062E-001  1.13287384E-002 -9.61078643E-003  2.28883560E-001 -1.49188408E-002 -9.93772375E-003  2.28577650E-001 -1.46035374E-002</v>
    <v>   3.64673882E-002  1.14425067E-002 -1.23428778E-001 -3.65622360E-002 -1.12739897E-002  1.23315885E-001  8.38896024E-002  6.01412811E-002 -6.14265388E-002 -8.39350990E-002 -5.97061383E-002  6.12656480E-002 -1.22257479E-001 -6.88465588E-002  1.81115202E-001  1.22005904E-001  6.92342690E-002 -1.81095681E-001  1.24557926E-001 -1.25934058E-002  2.65844800E-002 -1.24369944E-001  1.28657550E-002 -2.66126734E-002 -1.05035431E-001 -1.46285210E-001  3.70210805E-002  1.05095473E-001  1.46754725E-001 -3.69132276E-002 -1.28852091E-002  1.88930321E-001 -6.18967631E-002  1.29337966E-002 -1.88691330E-001  6.20719374E-002 -2.04829271E-001 -7.53556461E-002  2.10969087E-002  2.04680992E-001  7.50138556E-002 -2.12573777E-002  6.88682341E-002 -1.86051479E-001  4.48909797E-002 -6.89856535E-002  1.85324757E-001 -4.49848182E-002  1.28084456E-001  2.54991471E-001 -6.62157736E-002 -1.28246484E-001 -2.55206654E-001  6.61591358E-002 -1.74033460E-001 -1.38696302E-001  1.32720674E-001  1.74187248E-001  1.38543887E-001 -1.32620592E-001 -5.26844599E-003  5.13989322E-002  7.28930185E-002  5.43031348E-003 -5.20235176E-002 -7.28619410E-002  1.73267866E-001  5.32288180E-002 -2.08231267E-001 -1.73040407E-001 -5.37493411E-002  2.08416186E-001</v>
    <v>  -1.04952538E-001 -1.46478122E-001  3.78112090E-002  1.05199787E-001  1.46856978E-001 -3.76458698E-002 -1.23928577E-002  1.88240111E-001 -6.28819592E-002  1.25181538E-002 -1.88310902E-001  6.30967515E-002  1.24306848E-001 -1.19923696E-002  2.68297783E-002 -1.23899903E-001  1.20439144E-002 -2.69381228E-002  1.22117749E-001  7.01029903E-002 -1.80780262E-001 -1.22267778E-001 -6.99003918E-002  1.80836225E-001 -3.56862408E-002 -1.21853071E-002  1.22853441E-001  3.57310551E-002  1.20425668E-002 -1.22941816E-001 -8.47027653E-002 -5.99179366E-002  6.14390561E-002  8.48885463E-002  6.02287243E-002 -6.16636981E-002  1.72559778E-001  5.49632791E-002 -2.07892282E-001 -1.72522885E-001 -5.52513298E-002  2.08148491E-001 -1.74296527E-001 -1.39531678E-001  1.32134290E-001  1.74270255E-001  1.39866255E-001 -1.32068316E-001 -4.62289450E-003  5.08661493E-002  7.31290973E-002  4.56059886E-003 -5.13843160E-002 -7.31398548E-002 -6.77864660E-002  1.84975957E-001 -4.57861608E-002  6.73775962E-002 -1.85628251E-001  4.56971391E-002 -1.29601416E-001 -2.54527699E-001  6.73615753E-002  1.29286785E-001  2.54672317E-001 -6.73780268E-002  2.04632111E-001  7.50344754E-002 -2.16074774E-002 -2.04961623E-001 -7.49994446E-002  2.13826758E-002</v>
    <v>  -1.29904783E-001  1.13092619E-001  1.11102258E-001  1.30064851E-001 -1.12859215E-001 -1.10770748E-001  1.64837966E-001 -8.55896009E-004 -7.25301575E-002 -1.64596069E-001  6.12235067E-004  7.26795092E-002 -2.62443107E-002 -1.27911603E-001 -3.42988453E-002  2.67157492E-002  1.28026608E-001  3.43176223E-002 -5.99811342E-002  1.55159392E-001  5.73437805E-002  5.96647152E-002 -1.55216846E-001 -5.72964849E-002  2.48577079E-002 -5.66035988E-002  1.03251172E-001 -2.49021153E-002  5.64478111E-002 -1.03527805E-001  3.26009329E-002 -9.41230408E-002 -1.57923451E-001 -3.27120976E-002  9.44415653E-002  1.57665809E-001 -2.82777588E-002  9.90095180E-002  6.59737863E-002  2.84869743E-002 -9.88644069E-002 -6.56451283E-002 -2.18066720E-001  1.99722295E-002  1.09209191E-001  2.18271391E-001 -1.97068636E-002 -1.09094920E-001  2.44594588E-001 -1.01682584E-001 -1.77506958E-001 -2.44327071E-001  1.01122535E-001  1.77666797E-001  3.18169385E-002 -1.91259042E-001 -1.25318397E-001 -3.22421995E-002  1.90817740E-001  1.25229787E-001  7.55112438E-002 -7.49414292E-002  9.19677716E-002 -7.58440556E-002  7.53990474E-002 -9.21369296E-002 -9.55085097E-002  2.59301691E-001  3.50218304E-002  9.50568590E-002 -2.59440388E-001 -3.53765376E-002</v>
    <v>   2.59584292E-002 -5.59639062E-002  1.02546457E-001 -2.47943177E-002  5.54221004E-002 -1.04137213E-001  3.22078422E-002 -9.45463767E-002 -1.57165645E-001 -3.28810581E-002  9.63731130E-002  1.57540427E-001 -6.08578927E-002  1.54385625E-001  5.72357487E-002  5.99708752E-002 -1.56327630E-001 -5.65184139E-002  2.61516028E-002  1.28342544E-001  3.49122494E-002 -2.50131876E-002 -1.26862871E-001 -3.56571621E-002  1.29838301E-001 -1.12670671E-001 -1.10908965E-001 -1.30821873E-001  1.12685592E-001  1.12530831E-001 -1.63822183E-001 -3.67568396E-004  7.21235134E-002  1.64623497E-001 -1.98071886E-003 -7.25134927E-002 -9.61699667E-002  2.57738574E-001  3.59169749E-002  9.56815260E-002 -2.60575126E-001 -3.68137701E-002  3.28170119E-002 -1.90066298E-001 -1.25677889E-001 -3.31635578E-002  1.89839441E-001  1.26530938E-001  7.53226852E-002 -7.38751352E-002  9.14566597E-002 -7.58231321E-002  7.78160046E-002 -9.19978692E-002  2.18806287E-001 -2.02565804E-002 -1.09555390E-001 -2.18708051E-001  2.11769198E-002  1.08672642E-001 -2.43627627E-001  1.01101053E-001  1.77390650E-001  2.43914536E-001 -1.04436019E-001 -1.76737545E-001  2.70003123E-002 -9.76989927E-002 -6.49963988E-002 -2.67652862E-002  1.01217872E-001  6.58250528E-002</v>
    <v>   1.01215095E-001 -4.79076671E-002 -1.12279578E-001  1.01861358E-001 -4.86193664E-002 -1.11255416E-001 -1.94109119E-002  1.77935639E-001  2.73657935E-002 -1.91753952E-002  1.76673906E-001  2.55669138E-002 -7.77597646E-002 -1.18401843E-001  8.65252860E-002 -7.85905452E-002 -1.16323645E-001  8.73306870E-002  7.79868547E-002  1.16708460E-001 -8.72163171E-002  7.83975004E-002  1.18018202E-001 -8.66935693E-002 -1.02289870E-001  4.89124488E-002  1.12579015E-001 -1.00746093E-001  4.75878197E-002  1.11010404E-001  2.03024029E-002 -1.77460337E-001 -2.69926541E-002  1.83348246E-002 -1.77181352E-001 -2.59398823E-002 -7.01798149E-003 -2.21846006E-001 -6.21954514E-002 -8.44911162E-003 -2.18933053E-001 -6.17052617E-002  7.69277923E-003 -9.91548693E-002  8.51536480E-002  8.53850235E-003 -1.01508142E-001  8.33733409E-002  1.38309875E-003  3.08463417E-001 -1.64178886E-002  1.96162706E-003  3.07740611E-001 -1.51303554E-002 -9.48630207E-003  1.00456204E-001 -8.37533336E-002 -6.83408936E-003  1.00253433E-001 -8.47850866E-002 -2.21468086E-004 -3.08889100E-001  1.47627767E-002 -3.19865421E-003 -3.07363658E-001  1.67887283E-002  7.53996523E-003  2.21249809E-001  6.24101690E-002  7.92785551E-003  2.19608593E-001  6.15028168E-002</v>
    <v>   3.31006261E-002  1.57190188E-001 -3.54743280E-002  3.28563194E-002  1.56959634E-001 -3.50694277E-002 -1.11006992E-001 -4.24165034E-002  1.13211509E-001 -1.10959121E-001 -4.23982737E-002  1.12741677E-001  7.81514644E-002 -1.33980251E-001 -7.79536814E-002  7.82436583E-002 -1.33703181E-001 -7.80131642E-002 -7.82772647E-002  1.33673846E-001  7.80709911E-002 -7.81051723E-002  1.34178699E-001  7.79342789E-002 -3.31935761E-002 -1.56912312E-001  3.52477586E-002 -3.27724037E-002 -1.57086065E-001  3.52490278E-002  1.11156999E-001  4.26407799E-002 -1.13069364E-001  1.10823759E-001  4.23502603E-002 -1.12881751E-001  1.45863883E-002 -2.29497807E-001  6.01447435E-002  1.46738932E-002 -2.28774941E-001  5.99200505E-002  4.05200024E-003  3.12310078E-001  2.67505965E-002  3.57981632E-003  3.11881898E-001  2.66574783E-002 -1.93975671E-002 -6.17554943E-002 -8.57086781E-002 -1.92608075E-002 -6.21340696E-002 -8.55349797E-002 -4.01571473E-003 -3.12299984E-001 -2.64459475E-002 -3.58183288E-003 -3.12135047E-001 -2.69413997E-002  1.97010449E-002  6.19774719E-002  8.53929040E-002  1.89404538E-002  6.17350196E-002  8.58495559E-002 -1.46676779E-002  2.29012271E-001 -6.00432401E-002 -1.46363153E-002  2.29038115E-001 -6.00317063E-002</v>
    <v>  -1.34220814E-001 -8.75988693E-005 -1.01414234E-001 -1.33966049E-001 -2.11956231E-004 -1.01606342E-001 -1.41085221E-001 -6.82696574E-004 -9.96342733E-002 -1.41338973E-001 -9.32038176E-004 -9.98501821E-002 -1.41520832E-001  1.56984914E-003 -9.93339344E-002 -1.41908060E-001  2.03380457E-003 -9.91194801E-002  1.41582614E-001 -1.64203333E-003  9.91842079E-002  1.41794541E-001 -1.75461128E-003  9.93114917E-002  1.33979546E-001  3.96688976E-004  1.01714617E-001  1.34175308E-001  1.54134447E-004  1.01261488E-001  1.41288393E-001  7.71316317E-004  9.96153625E-002  1.41110917E-001  1.12051549E-003  9.98720437E-002 -1.96686267E-001 -2.75463400E-003 -1.25895327E-001 -1.97135806E-001 -2.59527831E-003 -1.25797962E-001 -1.90005743E-001 -9.11468968E-004 -1.29311470E-001 -1.89399062E-001 -1.34388295E-003 -1.29831036E-001 -1.96724902E-001  2.78601393E-003 -1.25613186E-001 -1.96914519E-001  2.95017536E-003 -1.25338538E-001  1.89717702E-001  9.53819384E-004  1.29534037E-001  1.89752602E-001  9.61891142E-004  1.29647655E-001  1.97168541E-001 -3.28861254E-003  1.25395967E-001  1.96528775E-001 -2.69667905E-003  1.25509222E-001  1.96932622E-001  2.78020861E-003  1.26037448E-001  1.96909525E-001  2.20327964E-003  1.25662726E-001</v>
    <v>   1.34802896E-001  1.50087502E-004 -1.43809427E-002 -1.34684601E-001 -1.21654306E-004  1.43562725E-002  1.38004092E-001 -7.01376281E-003 -1.58711498E-002 -1.37941873E-001  7.02688745E-003  1.59011026E-002  1.37958242E-001  7.47642716E-003 -1.56565745E-002 -1.37868838E-001 -7.53917441E-003  1.56628860E-002  1.70604166E-001 -4.01236216E-004  1.09369296E-001 -1.70542209E-001  4.50030097E-004 -1.09369838E-001  1.66852973E-001 -4.73554648E-004  1.05915363E-001 -1.66795528E-001  4.43497790E-004 -1.05890667E-001  1.70322059E-001 -2.18577387E-004  1.09442527E-001 -1.70232354E-001  1.79242512E-004 -1.09471628E-001 -3.07262436E-001  6.55340488E-003 -7.00505361E-002  3.07172709E-001 -6.64097508E-003  7.00754512E-002 -2.96884467E-001 -3.81306852E-004 -7.92471405E-002  2.96785833E-001  4.39926594E-004  7.92743434E-002 -3.07068128E-001 -6.75353138E-003 -6.99299690E-002  3.06983262E-001  6.80870336E-003  6.99082876E-002  5.96520150E-002  4.87025624E-004  7.73483389E-002 -5.97586344E-002 -5.20948805E-004 -7.73924075E-002  5.93134252E-002  5.78776248E-004  7.86451836E-002 -5.94253684E-002 -6.12755975E-004 -7.86311138E-002  5.96589526E-002  2.85366982E-004  7.83856503E-002 -5.97762649E-002 -1.85093399E-004 -7.83939503E-002</v>
    <v>  -1.66828605E-001  4.65843856E-004 -1.06008189E-001  1.66737411E-001 -3.90213404E-004  1.05910597E-001 -1.70429416E-001  2.22296635E-004 -1.09430322E-001  1.70218833E-001 -2.31968062E-004  1.09412706E-001 -1.70621857E-001  3.68049008E-004 -1.09385991E-001  1.70522989E-001 -4.01486644E-004  1.09304280E-001  1.37957019E-001  7.50814221E-003 -1.56342317E-002 -1.37942071E-001 -7.44445770E-003  1.57371931E-002  1.34719046E-001  1.63063720E-004 -1.43316170E-002 -1.34700149E-001 -1.54408707E-004  1.43913826E-002  1.38025859E-001 -6.93601514E-003 -1.58557912E-002 -1.37924581E-001  7.03622338E-003  1.58755433E-002 -5.97539199E-002 -3.83158002E-004 -7.84500198E-002  5.96763371E-002  2.46887920E-004  7.83967716E-002 -5.96883659E-002 -4.17807520E-004 -7.73992513E-002  5.96594198E-002  5.40007700E-004  7.73209435E-002 -5.94561907E-002 -5.00153578E-004 -7.86787652E-002  5.93571748E-002  4.78829894E-004  7.85690289E-002 -2.96809520E-001 -4.76325035E-004 -7.91612521E-002  2.96950356E-001  2.86769821E-004  7.92602724E-002 -3.06902800E-001 -6.82322097E-003 -6.98975191E-002  3.07144811E-001  6.80569997E-003  7.00042382E-002 -3.07091134E-001  6.54802322E-003 -7.00566155E-002  3.07254121E-001 -6.56444511E-003  7.01107785E-002</v>
    <v>  -8.09146939E-003 -1.92149585E-001  4.70038955E-004  8.04133877E-003  1.92225090E-001 -4.37190626E-004 -2.41268978E-002 -2.10961614E-001  7.99280549E-004  2.41788111E-002  2.11054172E-001 -7.95645748E-004  3.22826137E-002 -2.06573302E-001 -1.61653150E-003 -3.22679017E-002  2.06588493E-001  1.62098511E-003  1.06641612E-002  1.34363115E-001 -5.35057076E-003 -1.07140856E-002 -1.34417474E-001  5.32985114E-003 -2.44108656E-003  1.23329352E-001  1.64863196E-003  2.49393291E-003 -1.23444401E-001 -1.63905517E-003 -7.41810755E-003  1.37020201E-001  4.03553838E-003  7.34339183E-003 -1.37128589E-001 -4.06052713E-003 -1.12124194E-003  2.49619767E-001 -7.53395886E-003  1.19837041E-003 -2.49692723E-001  7.54594350E-003 -6.25147095E-004  2.84074007E-001  2.32237555E-003  5.26408896E-004 -2.84155045E-001 -2.29153462E-003  3.24771673E-004  2.38132995E-001  5.25008825E-003 -1.97105482E-004 -2.38220147E-001 -5.25136593E-003 -8.77662361E-003 -1.92566130E-001 -2.49983271E-003  8.82508243E-003  1.92676635E-001  2.46698294E-003 -2.72025726E-002 -2.05473334E-001 -5.98300221E-003  2.71287598E-002  2.05610719E-001  5.98585576E-003  3.54751412E-002 -2.01124690E-001  7.89008180E-003 -3.54913990E-002  2.01244770E-001 -7.90298047E-003</v>
    <v>  -2.44871413E-003  1.23407307E-001  1.62569166E-003  2.47797581E-003 -1.23345186E-001 -1.63732709E-003 -7.36940287E-003  1.37124644E-001  4.05451423E-003  7.34629013E-003 -1.37052627E-001 -4.05081663E-003  1.06888068E-002  1.34404790E-001 -5.33416104E-003 -1.06964737E-002 -1.34364535E-001  5.33178177E-003 -3.22630281E-002  2.06567570E-001  1.61852140E-003  3.22664709E-002 -2.06550502E-001 -1.62395818E-003  8.07203850E-003  1.92188538E-001 -4.24124664E-004 -8.09923528E-003 -1.92181442E-001  4.48204588E-004  2.41817946E-002  2.11027479E-001 -8.03597177E-004 -2.41603673E-002 -2.11037028E-001  7.84952554E-004  3.54722210E-002 -2.01240187E-001  7.88272044E-003 -3.54793315E-002  2.01131682E-001 -7.88510250E-003 -8.82800724E-003 -1.92674744E-001 -2.48570154E-003  8.84030593E-003  1.92610378E-001  2.49661845E-003 -2.71922771E-002 -2.05539774E-001 -5.98476508E-003  2.71833765E-002  2.05493032E-001  5.98638820E-003  5.24201279E-004 -2.84122664E-001 -2.28246483E-003 -5.55535232E-004  2.84102288E-001  2.27495537E-003 -2.21194694E-004 -2.38187474E-001 -5.25000473E-003  2.49575111E-004  2.38148198E-001  5.24089740E-003  1.17706011E-003 -2.49651961E-001  7.53798010E-003 -1.17470879E-003  2.49685441E-001 -7.52352398E-003</v>
    <v>   5.79196363E-002  2.08153510E-002  4.02842345E-003  5.79590440E-002  2.09527830E-002  4.00447646E-003  1.19479204E-001 -1.72754937E-001  1.05204576E-002  1.19409836E-001 -1.72634749E-001  1.05333830E-002 -1.75863913E-001 -1.12470494E-001 -1.35732970E-002 -1.75844999E-001 -1.12603241E-001 -1.35748726E-002  1.75842856E-001  1.12614502E-001  1.35712755E-002  1.75847521E-001  1.12482177E-001  1.35707056E-002 -5.80319131E-002 -2.08877908E-002 -4.01919265E-003 -5.78477964E-002 -2.08961451E-002 -4.00560981E-003 -1.19354288E-001  1.72695387E-001 -1.05275765E-002 -1.19522065E-001  1.72705982E-001 -1.05397373E-002 -2.69234380E-001  1.15947901E-001  4.45289355E-002 -2.69241925E-001  1.15713455E-001  4.45360435E-002  8.79087775E-002  1.08551877E-001 -1.17160659E-002  8.76643265E-002  1.08612201E-001 -1.17267593E-002  1.83532385E-001  1.26675893E-001 -3.01916576E-002  1.83765677E-001  1.26698021E-001 -3.02172192E-002 -8.77882811E-002 -1.08667056E-001  1.16935066E-002 -8.77908904E-002 -1.08517021E-001  1.17432524E-002 -1.83625934E-001 -1.26774830E-001  3.02431829E-002 -1.83676365E-001 -1.26607511E-001  3.01807259E-002  2.69239624E-001 -1.15768940E-001 -4.45341591E-002  2.69249326E-001 -1.15885561E-001 -4.45328835E-002</v>
    <v>   2.01420253E-001 -2.92477729E-002  1.65360635E-002  2.01924217E-001 -2.93691406E-002  1.65320256E-002 -1.48026288E-001 -7.95115599E-002 -1.13135709E-002 -1.48094557E-001 -7.94352530E-002 -1.13376105E-002 -4.74709633E-002  1.37858216E-001 -1.28875124E-003 -4.79606402E-002  1.38071454E-001 -1.28314968E-003  4.76064786E-002 -1.38178897E-001  1.28420498E-003  4.78572037E-002 -1.37702239E-001  1.26126840E-003 -2.01361883E-001  2.92713267E-002 -1.65268185E-002 -2.01971732E-001  2.93550399E-002 -1.65112904E-002  1.47902747E-001  7.97496816E-002  1.13257600E-002  1.48280290E-001  7.91966563E-002  1.13162252E-002 -7.18239461E-002 -2.47946916E-002  1.32602257E-002 -7.20757204E-002 -2.49619660E-002  1.31460262E-002  3.09893416E-001 -1.33341602E-002 -4.56622279E-002  3.10621546E-001 -1.37163369E-002 -4.55105357E-002 -2.28530200E-001 -7.16460887E-004  4.12750383E-002 -2.28980219E-001 -3.93518052E-004  4.12292635E-002 -3.10605842E-001  1.34984078E-002  4.56046110E-002 -3.09939173E-001  1.35134947E-002  4.55510315E-002  2.28775861E-001  8.91865188E-004 -4.12820788E-002  2.28651586E-001  1.47409852E-004 -4.12234833E-002  7.22334309E-002  2.45314879E-002 -1.31803439E-002  7.16396175E-002  2.52603204E-002 -1.32128681E-002</v>
    <v>   1.95160878E-002  2.19795202E-001  2.37636060E-003  2.06156689E-002  2.19884074E-001  2.36894217E-003  7.70262214E-002  9.87977255E-002  1.01653719E-002  7.59372683E-002  1.00319042E-001  1.01751735E-002 -9.57781485E-002  1.24191332E-001 -1.19283325E-002 -9.56786265E-002  1.22289251E-001 -1.19091012E-002  9.64805281E-002 -1.23108352E-001  1.19082575E-002  9.49751306E-002 -1.23354768E-001  1.19255660E-002 -2.13854941E-002 -2.19586416E-001 -2.40622040E-003 -1.87598491E-002 -2.20084427E-001 -2.35038334E-003 -7.59627362E-002 -9.99541239E-002 -1.01523932E-002 -7.70250823E-002 -9.91899280E-002 -1.01706864E-002 -1.54737430E-001 -2.02479791E-001  3.15129789E-002 -1.52914031E-001 -2.04506696E-001  3.16617842E-002  3.37969281E-002 -1.89890449E-001 -5.49300661E-003  3.04139956E-002 -1.89174879E-001 -5.58771456E-003  1.22861873E-001 -2.05656363E-001 -2.52132001E-002  1.24240796E-001 -2.03937904E-001 -2.53042528E-002 -3.27058149E-002  1.89823881E-001  5.27114917E-003 -3.14604493E-002  1.89256378E-001  5.78525465E-003 -1.22884302E-001  2.03755391E-001  2.53819425E-002 -1.24211548E-001  2.05828157E-001  2.51479117E-002  1.53734507E-001  2.04263174E-001 -3.14885491E-002  1.53906946E-001  2.02717653E-001 -3.16757764E-002</v>
    <v>   5.25139118E-002  7.16883967E-002  3.85946141E-003 -5.22179190E-002 -7.35515937E-002 -3.84478405E-003 -2.84490560E-002 -1.24276533E-001  2.22680743E-003  2.74568527E-002  1.23423692E-001 -2.33213594E-003 -2.19238831E-002  8.00385880E-002 -1.69287051E-003  2.26221322E-002 -8.06955257E-002  1.79554535E-003  2.13223708E-001  1.11706154E-001  9.10611829E-005 -2.13998087E-001 -1.11067936E-001 -2.06183066E-004 -2.56969153E-001  5.78133717E-002 -1.99323892E-004  2.56732579E-001 -5.59844868E-002  1.93057911E-004  3.41659926E-002 -1.40462543E-001 -2.47534676E-003 -3.31636497E-002  1.41378632E-001  2.58596365E-003 -2.65059203E-001  7.57563961E-003 -2.00111037E-002  2.66315987E-001 -6.08018057E-003  1.97660560E-002  3.16960206E-001  3.67339084E-002  3.57311703E-002 -3.16612275E-001 -3.53193311E-002 -3.57784470E-002 -3.82051151E-002 -8.78046557E-002 -8.39124942E-003  3.66123885E-002  8.94553628E-002  8.69508544E-003  7.94173194E-002  8.85086305E-002 -3.16077185E-002 -7.98490830E-002 -8.99694637E-002  3.16483503E-002 -2.91692234E-002 -2.98899627E-001 -9.49830616E-004  3.07394752E-002  2.97316955E-001  6.42339420E-004 -3.80288211E-002  1.72103996E-001  3.15052131E-002  3.68858352E-002 -1.73631604E-001 -3.12470401E-002</v>
    <v>   2.56940643E-001 -5.60940323E-002  2.27058537E-004 -2.56509483E-001  5.69925638E-002 -1.81557406E-004 -3.33763674E-002  1.41006340E-001  2.57836774E-003  3.35096483E-002 -1.40745275E-001 -2.53992994E-003 -2.13941522E-001 -1.11187956E-001 -1.90133280E-004  2.13432884E-001  1.11944397E-001  1.34937125E-004 -2.15800050E-002  7.96845712E-002 -1.71440631E-003  2.21171614E-002 -8.03777024E-002  1.74875385E-003  5.23859321E-002  7.26229225E-002  3.83570402E-003 -5.28385705E-002 -7.35219723E-002 -3.86336896E-003 -2.86925939E-002 -1.24009598E-001  2.25340299E-003  2.86064861E-002  1.23712853E-001 -2.28497361E-003  3.64905374E-002 -1.73421977E-001 -3.13257608E-002 -3.73275334E-002  1.72543079E-001  3.14938434E-002 -7.95927897E-002 -8.95687431E-002  3.15353431E-002  8.02864877E-002  8.87440976E-002 -3.16418131E-002  3.08926610E-002  2.97502737E-001  8.58859484E-004 -3.07365991E-002 -2.98384242E-001 -9.03828509E-004  3.16302971E-001  3.71127257E-002  3.58199650E-002 -3.16959997E-001 -3.62980678E-002 -3.57438929E-002 -3.71797066E-002 -8.83738758E-002 -8.62303664E-003  3.69428663E-002  8.91700339E-002  8.67081223E-003 -2.65426925E-001  6.63162003E-003 -1.98772159E-002  2.66232460E-001 -5.69112594E-003  1.97226640E-002</v>
    <v>   8.98868878E-002  1.82104698E-001 -2.02008167E-004 -8.99075874E-002 -1.80981064E-001  1.88415135E-004 -2.48076199E-001 -2.49756267E-003 -5.65862300E-004  2.48657350E-001  2.94238615E-003  6.38007197E-004  1.61531621E-001 -1.31070668E-001  1.11244859E-003 -1.62040724E-001  1.31570703E-001 -1.16537937E-003  4.62114859E-002  5.98256746E-002  6.57793022E-003 -4.56606209E-002 -6.02520900E-002 -6.50094696E-003  5.94599859E-002 -1.08268571E-001  1.81047113E-003 -5.94706665E-002  1.07098875E-001 -1.82784764E-003 -1.03442725E-001  1.96548213E-002 -6.35277799E-003  1.02947641E-001 -2.01471762E-002  6.28225360E-003 -7.65660762E-002 -2.58059750E-001  2.82994964E-002  7.56782200E-002  2.57146321E-001 -2.81333323E-002 -8.00981346E-002  2.54603769E-001  7.65882180E-003  8.01305201E-002 -2.55509170E-001 -7.66062549E-003  1.50011045E-001 -6.32256237E-002 -3.66985508E-002 -1.49207996E-001  6.22472206E-002  3.65271216E-002  1.09291335E-001 -9.39902859E-003  1.80432289E-002 -1.09246363E-001  1.02451406E-002 -1.80451420E-002 -3.06357447E-001  4.59264895E-002 -3.47302773E-002  3.05427605E-001 -4.49695552E-002  3.49191338E-002  2.00421677E-001  1.13197252E-002  1.96759013E-002 -1.99608528E-001 -1.03096752E-002 -1.98671013E-002</v>
    <v>  -6.02828237E-002  1.07896523E-001 -1.83355111E-003  6.00730425E-002 -1.07739109E-001  1.81880268E-003  1.03426146E-001 -2.01829661E-002  6.31975110E-003 -1.03158635E-001  2.02734483E-002 -6.29748013E-003 -4.54308205E-002 -5.98103642E-002 -6.53572523E-003  4.53013992E-002  5.97064873E-002  6.52825325E-003  1.61798625E-001 -1.31491806E-001  1.14009241E-003 -1.61764863E-001  1.31650801E-001 -1.13232523E-003  8.98842674E-002  1.81232711E-001 -1.95395061E-004 -8.97427562E-002 -1.81412618E-001  2.11655783E-004 -2.48447576E-001 -2.38869809E-003 -6.31054346E-004  2.48171675E-001  2.34072175E-003  5.98599566E-004 -2.00066138E-001 -1.03796751E-002 -1.96659569E-002  1.99994152E-001  1.03506101E-002  1.97005286E-002 -1.09245947E-001  9.98559628E-003 -1.81003602E-002  1.09019073E-001 -1.00829680E-002  1.81482039E-002  3.06057385E-001 -4.62481429E-002  3.47988827E-002 -3.05626734E-001  4.61880522E-002 -3.48576601E-002 -8.08260720E-002  2.54951946E-001  7.53706246E-003  8.11457878E-002 -2.54951091E-001 -7.58513725E-003  1.49509380E-001 -6.23912609E-002 -3.65576729E-002 -1.49926072E-001  6.24406222E-002  3.66233118E-002 -7.52936561E-002 -2.57628744E-001  2.82358439E-002  7.54863261E-002  2.57673320E-001 -2.82685513E-002</v>
    <v>   1.66213392E-001 -3.84856113E-002  9.43131645E-003  1.66155584E-001 -3.85136237E-002  9.41607100E-003 -4.78820784E-002  1.53554171E-001 -2.64499073E-003 -4.78495054E-002  1.53499554E-001 -2.64315017E-003 -1.13300186E-001 -1.20204853E-001 -6.69509066E-003 -1.13304693E-001 -1.20169901E-001 -6.70035605E-003 -1.13318707E-001 -1.20202553E-001 -6.69917364E-003 -1.13274081E-001 -1.20194322E-001 -6.70414719E-003  1.66193696E-001 -3.85243619E-002  9.41979976E-003  1.66130522E-001 -3.84934999E-002  9.41672371E-003 -4.78824581E-002  1.53521264E-001 -2.65265775E-003 -4.78446899E-002  1.53524156E-001 -2.65178152E-003  1.64921252E-001 -1.63497368E-001  1.26089616E-003  1.64878427E-001 -1.63426844E-001  1.24309377E-003 -2.41519685E-001 -4.82349274E-002 -3.59152963E-003 -2.41445336E-001 -4.82375712E-002 -3.59038350E-003  6.87648193E-002  2.19823529E-001  2.16038400E-003  6.87102750E-002  2.19802149E-001  2.15915132E-003 -2.41476961E-001 -4.82362903E-002 -3.59659939E-003 -2.41546727E-001 -4.82316398E-002 -3.61287056E-003  6.87213661E-002  2.19855418E-001  2.15412176E-003  6.87617304E-002  2.19781747E-001  2.15391204E-003  1.64905808E-001 -1.63446856E-001  1.24919084E-003  1.64896138E-001 -1.63434112E-001  1.25017796E-003</v>
    <v>  -3.82043097E-002 -1.62145170E-001 -2.29701187E-003 -3.81707746E-002 -1.62108109E-001 -2.30342359E-003  1.59041570E-001  4.42794680E-002  9.28104923E-003  1.59023126E-001  4.42811139E-002  9.29177951E-003 -1.21995961E-001  1.07647782E-001 -7.02014928E-003 -1.21982500E-001  1.07617194E-001 -7.00368776E-003 -1.22015075E-001  1.07631826E-001 -7.00869629E-003 -1.21970913E-001  1.07629709E-001 -7.01015922E-003 -3.81576785E-002 -1.62142554E-001 -2.30619541E-003 -3.81743890E-002 -1.62122976E-001 -2.29605246E-003  1.59058907E-001  4.42848139E-002  9.29068706E-003  1.58996938E-001  4.42684219E-002  9.29074602E-003  1.79949752E-001  1.60567397E-001 -3.78661155E-003  1.79902109E-001  1.60516931E-001 -3.78916379E-003  5.62318678E-002 -2.16653338E-001  8.17223738E-005  5.62409211E-002 -2.16623481E-001  9.78729143E-005 -2.34411420E-001  7.20621041E-002  3.73523890E-003 -2.34345450E-001  7.20804899E-002  3.74955343E-003  5.62438477E-002 -2.16660926E-001  9.19407414E-005  5.62819660E-002 -2.16600435E-001  1.04726776E-004 -2.34378913E-001  7.21093657E-002  3.75501641E-003 -2.34390432E-001  7.20693563E-002  3.74133329E-003  1.79897029E-001  1.60548878E-001 -3.79003036E-003  1.79934319E-001  1.60531881E-001 -3.78002972E-003</v>
    <v>  -2.30993345E-001  7.37843835E-002  7.30031757E-004 -2.31057391E-001  7.37446158E-002  7.43635234E-004  3.23732623E-002 -2.17387825E-001  7.17481583E-004  3.23510486E-002 -2.17401147E-001  6.95849041E-004  2.02018801E-001  1.39563192E-001 -1.42742710E-003  2.02038242E-001  1.39614026E-001 -1.43808586E-003  2.01988464E-001  1.39565602E-001 -1.42507460E-003  2.02016932E-001  1.39611699E-001 -1.46435328E-003 -2.31064046E-001  7.37095758E-002  7.17646742E-004 -2.31071386E-001  7.37891965E-002  7.42343126E-004  3.23272392E-002 -2.17332414E-001  6.99861610E-004  3.23463593E-002 -2.17455328E-001  7.12587607E-004  1.30192502E-001 -1.04977710E-001  1.91109817E-002  1.30178216E-001 -1.05009364E-001  1.91332570E-002 -1.51270232E-001 -6.36013315E-002 -1.52148346E-002 -1.51272245E-001 -6.35892556E-002 -1.52083606E-002  2.65440196E-002  1.62333451E-001 -3.97097876E-003  2.65685104E-002  1.62363150E-001 -3.98065407E-003 -1.51254534E-001 -6.35718294E-002 -1.52133292E-002 -1.51247287E-001 -6.36247621E-002 -1.51583288E-002  2.65593534E-002  1.62303293E-001 -3.96726816E-003  2.65746601E-002  1.62379839E-001 -3.95044862E-003  1.30176151E-001 -1.04982905E-001  1.91780253E-002  1.30209759E-001 -1.05016250E-001  1.91217023E-002</v>
    <v>  -9.40283571E-002 -1.82941656E-001  1.04498988E-003 -9.39859417E-002 -1.82976327E-001  1.03421886E-003  2.63770892E-001  2.50747072E-002 -1.35186765E-003  2.63786918E-001  2.50374678E-002 -1.39956537E-003 -1.68358113E-001  1.63242086E-001  3.66040569E-004 -1.68349103E-001  1.63307002E-001  3.33030929E-004 -1.68439289E-001  1.63313786E-001  3.39527490E-004 -1.68322154E-001  1.63284866E-001  3.50546347E-004 -9.41077055E-002 -1.82943954E-001  1.02962268E-003 -9.39794684E-002 -1.82931783E-001  9.91542931E-004  2.63724930E-001  2.50722970E-002 -1.41238540E-003  2.63780044E-001  2.50503005E-002 -1.37601168E-003 -9.99966462E-002 -1.26901693E-001 -2.83895219E-002 -9.99168593E-002 -1.26933849E-001 -2.83744460E-002 -5.94701599E-002  1.55145568E-001 -8.58490524E-003 -5.94177426E-002  1.55164443E-001 -8.55052874E-003  1.61586816E-001 -2.01164932E-002  3.68997131E-002  1.61661465E-001 -2.01039223E-002  3.68781093E-002 -5.94259092E-002  1.55194954E-001 -8.52965519E-003 -5.94204888E-002  1.55156786E-001 -8.54866900E-003  1.61626129E-001 -2.00847219E-002  3.69193791E-002  1.61670542E-001 -2.01051691E-002  3.68958622E-002 -9.99682182E-002 -1.26914386E-001 -2.83609842E-002 -9.99224284E-002 -1.26892859E-001 -2.83910058E-002</v>
    <v>  -1.50491496E-001 -1.37085040E-003 -4.93320900E-002  1.50600600E-001  1.32782507E-003  4.93515045E-002 -3.18229742E-001  5.26504287E-002  1.76334333E-002  3.18259842E-001 -5.25884906E-002 -1.76501679E-002 -3.44556287E-001 -5.00533967E-002  2.62419000E-002  3.44634534E-001  5.00679304E-002 -2.62102246E-002 -3.61090483E-002 -1.48315070E-001 -1.46387313E-002  3.59655788E-002  1.48290033E-001  1.45800975E-002 -3.25936798E-002 -2.44697828E-002 -1.13760035E-001  3.26170362E-002  2.45870242E-002  1.13777193E-001 -2.94116722E-002  1.84419489E-001 -3.44589009E-002  2.93306007E-002 -1.84522191E-001  3.44529726E-002 -1.08914982E-001  7.16235843E-002  4.78301881E-002  1.08827000E-001 -7.16101892E-002 -4.78974796E-002 -1.57094318E-001  8.59927506E-003  4.03211480E-002  1.57129233E-001 -8.56043952E-003 -4.03435489E-002 -1.17307813E-001 -7.82301080E-002  5.16639504E-002  1.17297181E-001  7.81978350E-002 -5.17256358E-002  1.44554034E-001  2.20463554E-002 -4.90127569E-002 -1.44526643E-001 -2.21085927E-002  4.91021580E-002  1.34940263E-001 -9.97379007E-002  1.06392888E-001 -1.34958863E-001  9.97648330E-002 -1.06336811E-001  1.34077617E-001  8.79245142E-002  1.31314446E-001 -1.33987958E-001 -8.79109474E-002 -1.31319955E-001</v>
    <v>  -3.24770370E-002 -2.45147764E-002 -1.13734324E-001  3.25768636E-002  2.44693593E-002  1.13834486E-001 -2.93176408E-002  1.84436880E-001 -3.44177174E-002  2.95775600E-002 -1.84583817E-001  3.44166993E-002 -3.58400273E-002 -1.48255939E-001 -1.46051347E-002  3.60505092E-002  1.48462126E-001  1.46252429E-002  3.44440256E-001  4.98590216E-002 -2.62594560E-002 -3.44694598E-001 -5.00376091E-002  2.62409819E-002  1.50446615E-001  1.49186722E-003  4.93131512E-002 -1.50671480E-001 -1.46583006E-003 -4.93913816E-002  3.18193468E-001 -5.25286136E-002 -1.75953797E-002 -3.18317874E-001  5.26988450E-002  1.75679872E-002  1.33959849E-001  8.79195542E-002  1.31232000E-001 -1.34043133E-001 -8.80652800E-002 -1.31390776E-001  1.44493450E-001  2.20485223E-002 -4.91141559E-002 -1.44640915E-001 -2.20043011E-002  4.90132370E-002  1.34987553E-001 -9.96984433E-002  1.06299653E-001 -1.34993986E-001  9.98123839E-002 -1.06444444E-001  1.57147940E-001 -8.63052561E-003 -4.03628949E-002 -1.57039563E-001  8.65212214E-003  4.03977549E-002  1.17301176E-001  7.81687199E-002 -5.15013436E-002 -1.17262827E-001 -7.82616159E-002  5.17091954E-002  1.08869935E-001 -7.14981050E-002 -4.78332927E-002 -1.08817310E-001  7.15884074E-002  4.79882358E-002</v>
    <v>   1.77312160E-001  5.06113100E-002  5.99282153E-003 -1.77352418E-001 -5.06647303E-002 -6.07366647E-003  5.42951324E-002 -2.03590084E-001 -3.19193474E-002 -5.43724167E-002  2.03707903E-001  3.19148782E-002  2.25088574E-002  1.38144942E-001 -5.89169669E-002 -2.27912946E-002 -1.38229021E-001  5.89285598E-002  5.65977718E-002 -2.00797030E-001  1.12472019E-001 -5.64895210E-002  2.00868330E-001 -1.12446896E-001  2.62866758E-001 -4.38349259E-002 -9.87335696E-002 -2.62817717E-001  4.38522476E-002  9.87930907E-002  1.24998313E-001  2.62379558E-001  6.22627601E-002 -1.24746868E-001 -2.62416599E-001 -6.22789157E-002  1.55329216E-001 -5.23449446E-002 -7.50628355E-002 -1.55295315E-001  5.24032906E-002  7.51509897E-002  5.95958837E-002 -2.87554751E-002  1.34849609E-001 -5.95590449E-002  2.88119051E-002 -1.34792394E-001  1.41100167E-001  6.93295093E-002 -1.63088836E-002 -1.41014592E-001 -6.94588770E-002  1.64398844E-002  1.55235953E-003  5.28765059E-002 -1.58974954E-001 -1.57241821E-003 -5.28219550E-002  1.58893615E-001  7.90093569E-003 -1.93707107E-001 -2.24244535E-003 -7.92608467E-003  1.93765830E-001  2.19439843E-003  2.58715239E-002  1.57609332E-001  3.06033553E-002 -2.59662891E-002 -1.57684412E-001 -3.07570711E-002</v>
    <v>   2.62859200E-001 -4.39813078E-002 -9.87998429E-002 -2.62906728E-001  4.40295385E-002  9.87215225E-002  1.24634996E-001  2.62471550E-001  6.22207921E-002 -1.24908686E-001 -2.62380488E-001 -6.22480986E-002  5.65966739E-002 -2.00722483E-001  1.12470410E-001 -5.68009925E-002  2.00597034E-001 -1.12537748E-001 -2.24477166E-002 -1.38427405E-001  5.88399610E-002  2.26306390E-002  1.38437052E-001 -5.87803832E-002 -1.77283088E-001 -5.03837404E-002 -6.06239807E-003  1.77456010E-001  5.03103196E-002  6.09507897E-003 -5.44005888E-002  2.03546907E-001  3.20812614E-002  5.45952915E-002 -2.03552587E-001 -3.20621453E-002  2.59350233E-002  1.57665145E-001  3.08178069E-002 -2.58602599E-002 -1.57545609E-001 -3.06911866E-002  1.55218923E-003  5.28827564E-002 -1.58876255E-001 -1.46155519E-003 -5.29221562E-002  1.58957883E-001  8.00773201E-003 -1.93757621E-001 -2.29097318E-003 -7.94114000E-003  1.93697141E-001  2.41875000E-003 -5.95890659E-002  2.85283725E-002 -1.34899476E-001  5.95779459E-002 -2.85116356E-002  1.34805842E-001 -1.41105115E-001 -6.93433551E-002  1.64271246E-002  1.41000806E-001  6.93078230E-002 -1.65900730E-002 -1.55442583E-001  5.25032610E-002  7.49328165E-002  1.55341919E-001 -5.25484219E-002 -7.50598429E-002</v>
    <v>  -3.44044480E-002  2.45249473E-001 -5.90169142E-003  3.46830674E-002 -2.45281743E-001  6.00963515E-003  1.02952437E-001 -1.03997617E-001  6.75000391E-002 -1.02764736E-001  1.03921659E-001 -6.74497491E-002 -8.82161059E-002 -1.80060707E-001 -5.36421099E-002  8.84958493E-002  1.80123860E-001  5.36549182E-002 -1.72086416E-001  1.94211177E-001  1.05137601E-001  1.71801877E-001 -1.94329233E-001 -1.05211399E-001 -4.61702861E-002 -2.35725640E-001  3.05308289E-002  4.59828681E-002  2.35723996E-001 -3.05978822E-002  1.81265183E-001  7.81408202E-002 -1.43770532E-001 -1.81598697E-001 -7.80118703E-002  1.43711951E-001  1.44585901E-002  5.35599709E-002 -1.31011488E-001 -1.45843591E-002 -5.36069547E-002  1.30835925E-001  1.54555165E-003 -1.14616439E-001 -3.02883605E-002 -1.64468728E-003  1.14579389E-001  3.01624758E-002 -4.60330661E-002  2.98707916E-002  1.57176982E-001  4.59166094E-002 -2.98197817E-002 -1.57405481E-001  5.85060057E-003  2.49059366E-001  3.21727679E-002 -5.68420282E-003 -2.49071511E-001 -3.20263204E-002 -5.72590774E-002 -6.03580421E-002 -9.67140839E-002  5.73073639E-002  6.03002624E-002  9.68785544E-002  4.84870085E-002 -1.53922603E-001  7.38068080E-002 -4.84155387E-002  1.54019307E-001 -7.36022159E-002</v>
    <v>   4.58556492E-002  2.35712785E-001 -3.04911288E-002 -4.58870040E-002 -2.35707468E-001  3.04945497E-002 -1.81436693E-001 -7.80438223E-002  1.43763627E-001  1.81481714E-001  7.79954176E-002 -1.43776447E-001  1.72026088E-001 -1.94289424E-001 -1.05139667E-001 -1.71986242E-001  1.94260746E-001  1.05150203E-001 -8.84773244E-002 -1.79837619E-001 -5.37569514E-002  8.85325075E-002  1.79899476E-001  5.37718539E-002 -3.47977240E-002  2.45253379E-001 -5.87063860E-003  3.48306058E-002 -2.45339094E-001  5.83355620E-003  1.02586361E-001 -1.04233099E-001  6.74177600E-002 -1.02708314E-001  1.04288885E-001 -6.74294609E-002 -4.86099601E-002  1.53936041E-001 -7.36884016E-002  4.86554180E-002 -1.53959674E-001  7.36887701E-002 -5.85003443E-003 -2.49074344E-001 -3.21864005E-002  5.86399602E-003  2.49045060E-001  3.21747431E-002  5.70856336E-002  6.03875569E-002  9.67481885E-002 -5.71620134E-002 -6.03849482E-002 -9.67802980E-002  1.52733129E-003 -1.14652278E-001 -3.00175934E-002 -1.55143674E-003  1.14673236E-001  3.00269431E-002 -4.59686023E-002  3.00210814E-002  1.57262234E-001  4.60369285E-002 -3.00414423E-002 -1.57312035E-001  1.44433257E-002  5.34301558E-002 -1.30940470E-001 -1.44539090E-002 -5.34071718E-002  1.30996055E-001</v>
    <v>   1.77278397E-001  4.10225425E-004  6.17445058E-002  1.76856291E-001  7.10944518E-004  6.17138463E-002  2.41719591E-001 -1.41750251E-002  5.63070371E-002  2.41520303E-001 -1.42067233E-002  5.63104992E-002  2.42370992E-001  1.30978637E-002  5.59320046E-002  2.42100950E-001  1.28130005E-002  5.57991885E-002 -2.42277508E-001 -1.32197914E-002 -5.58344919E-002 -2.42196388E-001 -1.27544258E-002 -5.58617484E-002 -1.77048578E-001 -4.63930251E-004 -6.18069750E-002 -1.77016497E-001 -6.63624342E-004 -6.16871244E-002 -2.41917984E-001  1.43501317E-002 -5.61764815E-002 -2.41448101E-001  1.41129993E-002 -5.64715590E-002 -1.03689692E-001 -1.85518890E-002 -1.51141607E-001 -1.03704092E-001 -1.84669165E-002 -1.51143404E-001 -6.85401412E-002 -7.20205149E-004 -1.36368620E-001 -6.85018191E-002 -8.77656087E-004 -1.36399792E-001 -1.03864498E-001  1.86862699E-002 -1.50907854E-001 -1.03931890E-001  1.87429716E-002 -1.50602200E-001  6.84185546E-002  6.76328582E-004  1.36294999E-001  6.86537411E-002  9.17239429E-004  1.36467624E-001  1.03756615E-001 -1.88244768E-002  1.50784731E-001  1.03971328E-001 -1.86618539E-002  1.50681988E-001  1.03549263E-001  1.87272475E-002  1.51168865E-001  1.03844801E-001  1.83583014E-002  1.51145961E-001</v>
    <v>   1.07787491E-001 -4.42292066E-002 -6.98943388E-002  1.07910251E-001 -4.42629808E-002 -6.98434088E-002 -2.62179992E-003  2.97035567E-001  3.30056562E-002 -2.59609741E-003  2.96980708E-001  3.30316957E-002 -5.58095381E-002 -2.23924585E-001  6.30793878E-002 -5.58783489E-002 -2.23754402E-001  6.31386985E-002  5.59099645E-002  2.23950394E-001 -6.30849152E-002  5.57524639E-002  2.23760729E-001 -6.30643081E-002 -1.07845156E-001  4.42268604E-002  6.99208472E-002 -1.07821303E-001  4.42735576E-002  6.98280097E-002  2.67424863E-003 -2.97073409E-001 -3.30756490E-002  2.48571302E-003 -2.96965453E-001 -3.30210044E-002 -4.22064732E-002  1.61573248E-001  5.46316955E-002 -4.22559573E-002  1.61537525E-001  5.45787734E-002  5.13824276E-002  5.01125198E-002 -1.08273317E-001  5.13019742E-002  5.01825326E-002 -1.08182061E-001 -3.91106562E-002 -1.87432074E-001  2.49213982E-002 -3.91540500E-002 -1.87421164E-001  2.48344696E-002 -5.13028583E-002 -5.01059816E-002  1.08283836E-001 -5.13956839E-002 -5.01519257E-002  1.08216210E-001  3.91399062E-002  1.87486673E-001 -2.49114934E-002  3.90639384E-002  1.87354189E-001 -2.48671370E-002  4.22541600E-002 -1.61625878E-001 -5.46287028E-002  4.22315760E-002 -1.61486464E-001 -5.45925423E-002</v>
    <v>  -3.30931368E-002 -2.15512581E-001  1.51935744E-002 -3.32213238E-002 -2.15528019E-001  1.51850190E-002  1.98064439E-001  8.76935795E-002 -8.14656974E-002  1.97998026E-001  8.76345719E-002 -8.14907272E-002 -1.75298090E-001  1.83036507E-001  5.95781688E-002 -1.75322985E-001  1.83088919E-001  5.95712595E-002  1.75294863E-001 -1.83136135E-001 -5.95762114E-002  1.75364161E-001 -1.83110716E-001 -5.95991579E-002  3.31289922E-002  2.15527643E-001 -1.51963133E-002  3.30789223E-002  2.15538054E-001 -1.51832617E-002 -1.98046028E-001 -8.76622511E-002  8.14853740E-002 -1.97926559E-001 -8.76109025E-002  8.14870066E-002  4.41206844E-002 -1.24674257E-001  6.17781424E-002  4.41276197E-002 -1.24712567E-001  6.17947623E-002 -5.49156669E-004  2.22404662E-001  1.92891892E-002 -6.04184049E-004  2.22399238E-001  1.93146184E-002 -3.64537059E-002 -5.21110996E-002 -7.54168635E-002 -3.64041790E-002 -5.20737310E-002 -7.53795836E-002  5.27390478E-004 -2.22434342E-001 -1.93598137E-002  6.33899620E-004 -2.22398300E-001 -1.93532482E-002  3.64141371E-002  5.20589667E-002  7.54316220E-002  3.64585701E-002  5.21162646E-002  7.54471501E-002 -4.41319628E-002  1.24698682E-001 -6.17825093E-002 -4.41205705E-002  1.24682501E-001 -6.17659883E-002</v>
    <v>   5.11705991E-002  1.80846428E-001 -3.80722297E-003  5.12311988E-002  1.81010776E-001 -3.81015571E-003  1.92874774E-001 -1.19454505E-001  3.44130092E-002  1.92925226E-001 -1.19467858E-001  3.44330625E-002 -2.32558608E-001 -1.21361202E-001 -2.43082234E-002 -2.32398595E-001 -1.21538289E-001 -2.43117746E-002  2.32380528E-001  1.21448456E-001  2.43447446E-002  2.32368529E-001  1.21477790E-001  2.43234251E-002 -5.12412345E-002 -1.80849359E-001  3.79749819E-003 -5.10187206E-002 -1.80805873E-001  3.81255233E-003 -1.92758685E-001  1.19359266E-001 -3.44317869E-002 -1.93012411E-001  1.19324853E-001 -3.44206439E-002  2.19281404E-001  1.62613170E-002 -3.75174796E-002  2.19317092E-001  1.63194319E-002 -3.75829027E-002 -3.21654586E-002 -5.21471522E-002 -4.20193215E-003 -3.19782547E-002 -5.22414086E-002 -4.19468493E-003 -1.94087864E-001 -1.29669840E-002  3.52322658E-002 -1.94242382E-001 -1.29481827E-002  3.52141551E-002  3.21036693E-002  5.22285505E-002  4.26138741E-003  3.20215634E-002  5.21540093E-002  4.29688094E-003  1.94143865E-001  1.29564342E-002 -3.51610380E-002  1.94148025E-001  1.29461886E-002 -3.51996385E-002 -2.19256985E-001 -1.63427552E-002  3.74712467E-002 -2.19331394E-001 -1.62293499E-002  3.74058773E-002</v>
    <v>   3.33565992E-001 -3.59092113E-002  5.17155124E-003  3.33829213E-001 -3.59748994E-002  5.21020838E-003 -1.52741120E-001 -5.78195965E-002  5.85809237E-003 -1.52632860E-001 -5.78391860E-002  5.84748735E-003 -1.07438701E-001  9.83094784E-002  1.99843235E-002 -1.07734004E-001  9.84259394E-002  1.99383113E-002  1.07655461E-001 -9.85341190E-002 -1.99626406E-002  1.07658442E-001 -9.84493581E-002 -1.99530044E-002 -3.33769325E-001  3.58852628E-002 -5.23438742E-003 -3.33885074E-001  3.59660168E-002 -5.23879629E-003  1.52570359E-001  5.80196188E-002 -5.85559969E-003  1.52870358E-001  5.79576945E-002 -5.85175743E-003  7.70634924E-002  3.80405795E-002 -1.15167604E-002  7.71223024E-002  3.80353042E-002 -1.15436388E-002 -2.46261235E-001  1.43009534E-002 -5.01666569E-003 -2.46374582E-001  1.44145659E-002 -5.01318392E-003  1.31791531E-001 -4.86443408E-002 -2.68920217E-002  1.31973631E-001 -4.87254986E-002 -2.68374163E-002  2.46368204E-001 -1.43968034E-002  4.90408038E-003  2.46247075E-001 -1.43110395E-002  4.81411954E-003 -1.31848347E-001  4.86198893E-002  2.69174922E-002 -1.31922170E-001  4.86960276E-002  2.68952993E-002 -7.72127661E-002 -3.79635676E-002  1.15882311E-002 -7.69818265E-002 -3.80501533E-002  1.16360970E-002</v>
    <v>  -2.11034261E-001 -4.44677305E-002  5.28462158E-004 -2.12072252E-001 -4.44515712E-002  3.73654122E-004  7.67109709E-002  2.39188304E-001 -2.32061784E-003  7.69059906E-002  2.39264600E-001 -2.29198650E-003  1.41886363E-001 -1.86368359E-001  2.54156812E-003  1.42727607E-001 -1.86472530E-001  2.66504785E-003  1.42223796E-001 -1.86177764E-001  2.60492546E-003  1.42389219E-001 -1.86408779E-001  2.61710527E-003 -2.11369260E-001 -4.45774784E-002  4.49002834E-004 -2.11378070E-001 -4.47250564E-002  4.42350581E-004  7.67142004E-002  2.38904178E-001 -2.32493551E-003  7.66654371E-002  2.39480254E-001 -2.34669455E-003 -3.05808656E-003  9.18707414E-003  1.54470584E-001 -3.11244014E-003  9.00098304E-003  1.54611217E-001  1.23638929E-002  7.47417282E-003 -2.33628561E-001  1.25586798E-002  7.34236574E-003 -2.33771436E-001 -1.06294605E-003 -7.80355330E-003  7.96012016E-002 -1.14487447E-003 -7.48473069E-003  7.96295455E-002  1.19515690E-002  7.40344797E-003 -2.33761976E-001  1.27065547E-002  7.49103058E-003 -2.33630066E-001 -8.94808615E-004 -7.66084198E-003  7.95802252E-002 -9.94233270E-004 -7.74124125E-003  7.95146988E-002 -2.79198269E-003  8.96661460E-003  1.54609624E-001 -3.41766309E-003  9.11666397E-003  1.54499725E-001</v>
    <v>   8.13782311E-002  1.66116576E-001  4.86333250E-003 -8.10359837E-002 -1.66290274E-001 -4.89349799E-003  2.19968992E-001 -1.37748397E-001  5.52898835E-002 -2.20246764E-001  1.37623124E-001 -5.52074285E-002 -2.91421318E-001 -9.29636859E-002 -5.78359760E-002  2.91368829E-001  9.33231158E-002  5.78332324E-002  2.26804551E-001 -6.26007831E-002  2.20676823E-002 -2.26718184E-001  6.29894564E-002 -2.20767660E-002 -4.31347585E-002  1.26137904E-001 -5.01379132E-003  4.33023268E-002 -1.26440976E-001  4.93601086E-003 -1.88955854E-001 -1.15187410E-001 -1.30912668E-002  1.88748655E-001  1.15051057E-001  1.31201995E-002  2.27244483E-001 -1.17582156E-002 -2.31108901E-002 -2.27209310E-001  1.18187990E-002  2.31521169E-002 -4.52954133E-002  2.25284653E-003  5.48587361E-003  4.51905966E-002 -2.25251003E-003 -5.22307647E-003 -1.80413676E-001 -4.57973216E-002  1.60656899E-002  1.80472497E-001  4.57867530E-002 -1.63469617E-002 -4.73596498E-002 -1.45385217E-001 -1.49581985E-002  4.73948730E-002  1.45403493E-001  1.52400633E-002 -1.35717738E-001  7.40038136E-002 -5.08653918E-002  1.35790395E-001 -7.40144223E-002  5.05351272E-002  1.75038457E-001  3.46465650E-002  6.58926347E-002 -1.75101741E-001 -3.46878628E-002 -6.58681231E-002</v>
    <v>   4.25922761E-002 -1.27111648E-001  4.85772105E-003 -4.19395558E-002  1.25271154E-001 -4.87289926E-003  1.88671893E-001  1.15496243E-001  1.32072475E-002 -1.90185850E-001 -1.15085736E-001 -1.31818292E-002 -2.26028392E-001  6.31583347E-002 -2.20335822E-002  2.26866813E-001 -6.17074548E-002  2.21000795E-002 -2.91064875E-001 -9.28200805E-002 -5.79006410E-002  2.91939716E-001  9.42726969E-002  5.78567993E-002  8.17752633E-002  1.65478168E-001  4.93111887E-003 -8.14829716E-002 -1.67114164E-001 -4.95041243E-003  2.19239706E-001 -1.37179442E-001  5.52337714E-002 -2.20415807E-001  1.37588990E-001 -5.52051749E-002 -1.75286575E-001 -3.48857884E-002 -6.53262661E-002  1.75142513E-001  3.48485132E-002  6.64029731E-002  4.77736328E-002  1.45457378E-001  1.52965058E-002 -4.79589296E-002 -1.45269452E-001 -1.47490145E-002  1.35546774E-001 -7.38951866E-002  4.99793096E-002 -1.35274674E-001  7.37999200E-002 -5.15706336E-002 -4.46102033E-002  2.27031532E-003  5.80142354E-003  4.46834921E-002 -2.07452169E-003 -5.24425300E-003 -1.80796696E-001 -4.59340606E-002  1.52916556E-002  1.80826977E-001  4.60192394E-002 -1.69049840E-002  2.26998112E-001 -1.15540249E-002 -2.26587570E-002 -2.27087954E-001  1.14885496E-002  2.37113923E-002</v>
    <v>  -3.73169841E-002  2.58998682E-001 -2.84028240E-003 -3.81846133E-002  2.59053638E-001 -2.84087411E-003  1.84839614E-001 -9.76152183E-002  1.75239157E-003  1.83750013E-001 -1.00032423E-001  1.57812767E-003 -1.45965459E-001 -1.81771561E-001  1.31145839E-003 -1.44194002E-001 -1.79653895E-001  1.74630665E-003 -1.46832399E-001 -1.80641262E-001  1.19652429E-003 -1.43531134E-001 -1.80861427E-001  1.73452351E-003 -3.48955789E-002  2.59473213E-001 -2.56917023E-003 -4.05774564E-002  2.58553116E-001 -3.16106435E-003  1.83457351E-001 -9.97078902E-002  1.60261714E-003  1.85274677E-001 -9.80534324E-002  1.66101280E-003  1.82583005E-002  8.39768362E-003 -1.78040262E-001  2.02865980E-002  7.61721983E-003 -1.77318664E-001  3.44205487E-003 -2.95299032E-002 -4.27361920E-002 -4.17590197E-004 -3.01015341E-002 -4.34735430E-002 -2.00127059E-002 -1.99983831E-004  2.21002526E-001 -1.85550916E-002  9.89821203E-004  2.21058159E-001  6.96423355E-004 -2.99916332E-002 -4.27659252E-002  2.35122931E-003 -2.96755962E-002 -4.34662675E-002 -1.94721794E-002 -2.98814351E-004  2.20781853E-001 -1.91497488E-002  1.03639052E-003  2.21260119E-001  2.04609129E-002  8.58342800E-003 -1.77847133E-001  1.82966125E-002  7.36115385E-003 -1.77503900E-001</v>
    <v>  -3.63741405E-003  4.99030906E-002 -6.49553475E-003  3.99512559E-003 -5.30273406E-002  6.51498669E-003 -1.16247199E-002  1.45597259E-001 -1.60834754E-003  9.47641009E-003 -1.44456062E-001  1.60474525E-003  1.70261897E-002 -1.96067633E-001 -9.55774315E-003 -1.52886300E-002  1.98070906E-001  9.47438690E-003 -1.15556312E-001  5.38103977E-002 -8.75344097E-003  1.17406813E-001 -5.13239757E-002  8.76154214E-003  4.19731115E-001 -2.22821190E-002  4.52412704E-002 -4.19142649E-001  1.89502042E-002 -4.51513771E-002 -2.52740842E-001 -2.76713808E-002 -3.77161344E-002  2.50297470E-001  2.90467034E-002  3.76696319E-002 -8.32066547E-002  6.83027680E-002 -1.40645260E-002  8.30412004E-002 -6.84177091E-002  1.62465882E-002  2.95843184E-001 -2.57671109E-002  4.87769843E-002 -2.95724371E-001  2.60124370E-002 -4.82558573E-002 -1.84871109E-001 -4.26753826E-002 -3.07144069E-002  1.84942898E-001  4.26396649E-002  2.80150988E-002 -7.24255011E-002 -1.41152349E-002  5.74999107E-002  7.23109884E-002  1.46267562E-002 -5.69600153E-002  6.91782039E-002 -9.33044577E-002 -4.39630149E-002 -6.87788823E-002  9.33446397E-002  4.11648859E-002  2.52584863E-002  1.10580950E-001 -2.27847136E-002 -2.56138167E-002 -1.10658641E-001  2.50292601E-002</v>
    <v>  -4.20015333E-001  2.08922414E-002 -4.51423649E-002  4.19337290E-001 -2.06101628E-002  4.51916347E-002  2.51072734E-001  2.85154435E-002  3.76102740E-002 -2.50582911E-001 -2.80378309E-002 -3.75958230E-002  1.17358721E-001 -5.29506858E-002  8.88963073E-003 -1.17205066E-001  5.22933707E-002 -8.90774156E-003  1.66597575E-002 -1.97115067E-001 -9.42104400E-003 -1.65136531E-002  1.96456313E-001  9.43592316E-003 -4.14277737E-003  5.10206616E-002 -6.52436827E-003  3.81326139E-003 -5.08200170E-002  6.47170870E-003 -1.06881373E-002  1.45597543E-001 -1.75479392E-003  1.10138514E-002 -1.45244117E-001  1.74618874E-003 -2.53009700E-002 -1.10515694E-001  2.41866902E-002  2.53069079E-002  1.10536272E-001 -2.40211270E-002  7.23691485E-002  1.40511864E-002 -5.75596127E-002 -7.22238727E-002 -1.40557259E-002  5.69893361E-002 -6.91914806E-002  9.35803467E-002  4.27086712E-002  6.90847812E-002 -9.35286850E-002 -4.22224114E-002  2.95916908E-001 -2.57887458E-002  4.82266339E-002 -2.95976757E-001  2.57279237E-002 -4.88140806E-002 -1.84307512E-001 -4.26638112E-002 -2.91345536E-002  1.84366736E-001  4.25914757E-002  2.95699954E-002 -8.38001088E-002  6.83285277E-002 -1.51414748E-002  8.38504991E-002 -6.82765939E-002  1.52173647E-002</v>
    <v>  -6.68586770E-003 -2.66089026E-001  1.48192976E-002 -6.64050006E-003 -2.66317183E-001  1.48563708E-002 -7.83655483E-003 -2.04107013E-001  3.46084310E-003 -7.87069683E-003 -2.04259585E-001  3.45539483E-003 -5.03698148E-004 -2.15568247E-001  4.24775100E-002 -5.48233170E-004 -2.15780276E-001  4.24524768E-002  6.17144042E-004  2.15501628E-001 -4.25417615E-002  4.88271648E-004  2.15710313E-001 -4.25568959E-002  6.53495478E-003  2.66133450E-001 -1.47736489E-002  6.70490286E-003  2.66354587E-001 -1.47200531E-002  7.85489822E-003  2.04140544E-001 -3.46156705E-003  7.87951280E-003  2.04274413E-001 -3.41332005E-003 -3.01830785E-002 -1.78181275E-001  9.92821759E-003 -3.02691545E-002 -1.78299344E-001  9.91170581E-003 -8.55176079E-003 -1.44377051E-001  9.13770613E-003 -8.44653262E-003 -1.44507151E-001  9.19029521E-003  1.21926753E-003 -1.86842342E-001  6.53961713E-003  1.24704367E-003 -1.86993899E-001  6.55901344E-003  8.58086961E-003  1.44313896E-001 -9.21418299E-003  8.50975155E-003  1.44473168E-001 -9.19916374E-003 -1.25064969E-003  1.86912139E-001 -6.51319492E-003 -1.23219851E-003  1.87038707E-001 -6.49221836E-003  3.01579285E-002  1.78137033E-001 -9.90421681E-003  3.02203954E-002  1.78317975E-001 -9.90221394E-003</v>
    <v>   6.53168494E-002 -2.31977525E-002 -2.04508020E-001  6.53506718E-002 -2.33825522E-002 -2.04597039E-001  5.10778802E-002 -8.94459288E-003 -2.33517207E-001  5.10449208E-002 -9.09138237E-003 -2.33533941E-001  5.16179431E-002 -2.97986358E-002 -2.39126036E-001  5.15621685E-002 -2.99712049E-002 -2.39181307E-001 -5.15676250E-002  2.94121010E-002  2.30121262E-001 -5.16073182E-002  3.01683510E-002  2.30041740E-001 -6.53823130E-002  2.29083706E-002  2.04573829E-001 -6.53549427E-002  2.36848982E-002  2.04720304E-001 -5.09352704E-002  8.78960664E-003  2.42409972E-001 -5.09509430E-002  9.47882816E-003  2.42521705E-001  1.37159464E-001 -1.85002189E-002 -8.53355243E-002  1.37120893E-001 -1.85391707E-002 -8.53849464E-002  1.32854193E-001 -1.60338577E-002 -1.13311447E-001  1.32917016E-001 -1.61130518E-002 -1.13281605E-001  1.44230680E-001 -1.10567340E-002 -8.51287877E-002  1.44282024E-001 -1.11717512E-002 -8.51397378E-002 -1.32788216E-001  1.03134177E-002  1.13173514E-001 -1.32798235E-001  1.08097976E-002  1.13218688E-001 -1.39444592E-001  1.36093265E-002  8.51682448E-002 -1.39429405E-001  1.42390449E-002  8.52008383E-002 -1.41997626E-001  2.09781819E-002  8.53334950E-002 -1.41978835E-001  2.15271047E-002  8.54136928E-002</v>
    <v>  -2.24221567E-003 -1.20290811E-003  3.22194663E-003 -2.24560390E-003 -9.85759531E-004  3.16550840E-003  6.07172925E-004  3.09495650E-003  2.85892726E-001  6.50989501E-004  3.29044009E-003  2.86081170E-001 -9.09058559E-004 -1.57823870E-003 -2.78242309E-001 -9.47748025E-004 -1.34493504E-003 -2.78358677E-001  7.05017045E-004 -2.34578590E-003 -2.85717111E-001  7.32068003E-004 -2.49453904E-003 -2.85799285E-001 -1.84151183E-004 -1.74385746E-003 -3.33713809E-003 -1.84787801E-004 -2.02361105E-003 -3.32033675E-003  2.27148278E-003  2.91745725E-003  2.78350974E-001  2.20599782E-003  2.75638542E-003  2.78341525E-001 -1.53779149E-001  8.71465344E-002  2.87748501E-003 -1.53800692E-001  8.73460080E-002  2.89369525E-003 -1.68099806E-003 -1.72899988E-001 -1.65222094E-004 -1.69751969E-003 -1.72823355E-001 -1.31625884E-004  1.48966794E-001  8.61558442E-002  1.86659765E-003  1.48958839E-001  8.63184007E-002  1.79533027E-003  2.53467278E-003 -1.73206234E-001 -3.74149582E-003  2.56378620E-003 -1.73382065E-001 -3.74064520E-003  1.53538585E-001  8.58783850E-002 -8.02356626E-004  1.53488690E-001  8.57454542E-002 -9.19495203E-004 -1.49356454E-001  8.66336596E-002  1.00046152E-004 -1.49329395E-001  8.64605097E-002  1.86048407E-004</v>
    <v>  -2.19286716E-003 -3.32735009E-001 -7.42545756E-003  2.13605029E-003  3.32647006E-001  7.25826801E-003 -5.57814887E-003 -2.87981810E-001 -4.30689933E-002  5.55508717E-003  2.87925909E-001  4.31327529E-002  7.38159732E-003 -2.99608854E-001  6.01931938E-002 -7.39490002E-003  2.99597013E-001 -5.99298882E-002 -2.04946739E-002 -1.01725115E-001 -9.36727565E-003  2.04922269E-002  1.01826086E-001  9.54882435E-003  6.48810825E-003 -1.12929286E-001  2.76370780E-003 -6.44294997E-003  1.13066213E-001 -2.95958809E-003  1.83357460E-002 -9.77777332E-002  9.87980333E-003 -1.83393126E-002  9.79018186E-002 -1.00320699E-002 -1.25713001E-002 -2.45240154E-001 -1.21666769E-002  1.26401136E-002  2.45246613E-001  1.22105097E-002  3.30532932E-003 -1.98817650E-001  4.63533591E-003 -3.42169552E-003  1.98856988E-001 -4.56412830E-003  9.00637929E-003 -2.56536022E-001  1.53264658E-002 -9.07127444E-003  2.56379804E-001 -1.53474357E-002  3.48876806E-003 -5.06953065E-002  1.68656846E-003 -3.58161484E-003  5.08840981E-002 -1.74721577E-003  1.76966238E-002 -6.27615534E-002  9.56515921E-003 -1.76843711E-002  6.27268691E-002 -9.55585479E-003 -2.43641576E-002 -5.92289696E-002 -1.33222896E-002  2.45163426E-002  5.93487666E-002  1.32837661E-002</v>
    <v>   6.52138349E-003 -1.13096971E-001  2.38065741E-003 -6.34091673E-003  1.12852607E-001 -3.29270983E-003  1.84272052E-002 -9.79451403E-002  9.78116740E-003 -1.82972017E-002  9.77797376E-002 -1.02839302E-002 -2.04555102E-002 -1.01887285E-001 -9.47141780E-003  2.05689885E-002  1.01670688E-001  9.45690573E-003 -7.38850263E-003  2.99679216E-001 -5.96135952E-002  7.33902230E-003 -2.99479148E-001  6.06209498E-002  2.05834869E-003  3.32815805E-001  7.29633441E-003 -2.25150527E-003 -3.32532806E-001 -7.36956170E-003  5.48141829E-003  2.88076938E-001  4.35382640E-002 -5.58368546E-003 -2.87859909E-001 -4.28528652E-002 -2.41540273E-002 -5.92849356E-002 -1.33839021E-002  2.47441546E-002  5.92639370E-002  1.32308171E-002  3.50837099E-003 -5.08068949E-002  1.60101507E-003 -3.51243653E-003  5.08186391E-002 -1.86995112E-003  1.78865919E-002 -6.29681933E-002  9.50915252E-003 -1.75077234E-002  6.25144840E-002 -9.65173942E-003 -3.60645046E-003  1.98897683E-001 -4.44128310E-003  3.07812231E-003 -1.98656384E-001  4.72345794E-003 -9.21907269E-003  2.56403664E-001 -1.52792820E-002  8.91020370E-003 -2.56527138E-001  1.54879896E-002  1.25568500E-002  2.45472300E-001  1.23464940E-002 -1.26202389E-002 -2.45078815E-001 -1.21235605E-002</v>
    <v>   8.62973328E-004  2.69792772E-003  3.11548167E-001  8.28648440E-004  3.03814181E-003  3.11656365E-001  7.13779847E-004 -9.23095111E-004 -1.77593740E-001  5.91160728E-004 -5.73823584E-004 -1.77674010E-001 -1.39089398E-003 -2.73750433E-003 -1.77775507E-001 -1.32205192E-003 -2.43337883E-003 -1.77873196E-001 -1.34247940E-003 -2.43228693E-003 -1.77936719E-001 -1.32284544E-003 -2.88264203E-003 -1.77818552E-001  8.31909934E-004  3.05161858E-003  3.11451598E-001  8.24416786E-004  2.54892708E-003  3.11623802E-001  6.75512763E-004 -6.37530703E-004 -1.77614620E-001  6.60148539E-004 -9.54309130E-004 -1.77870190E-001 -8.61919506E-002 -1.48736292E-001 -1.33897488E-002 -8.61776573E-002 -1.48539968E-001 -1.33249973E-002  1.73138555E-001 -7.97312045E-004 -1.24019285E-002  1.73223398E-001 -6.34633422E-004 -1.24175631E-002 -8.69393050E-002  1.48786852E-001 -9.92206009E-003 -8.70335660E-002  1.49084402E-001 -9.98248209E-003  1.73236491E-001 -6.45096732E-004 -1.23960195E-002  1.73271494E-001 -8.51994640E-004 -1.24891256E-002 -8.69640182E-002  1.49058379E-001 -1.00202261E-002 -8.69168477E-002  1.48712111E-001 -9.89043764E-003 -8.61453962E-002 -1.48467254E-001 -1.34029934E-002 -8.61705674E-002 -1.48923233E-001 -1.33783387E-002</v>
    <v>  -3.02053814E-003  1.89436449E-001 -1.18347374E-002  2.96400419E-003 -1.89407399E-001  1.17005270E-002  9.02237634E-003 -4.90748330E-002 -3.57980668E-001 -8.98310106E-003  4.90679691E-002  3.58019925E-001 -7.50601006E-003 -4.43748602E-002  3.72171677E-001  7.43418329E-003  4.43742391E-002 -3.72152170E-001 -5.01915240E-002 -1.51379018E-002 -1.68023019E-002  5.01469306E-002  1.50729738E-002  1.69637638E-002  1.73008565E-003  8.37939184E-002 -1.27922718E-002 -1.77971242E-003 -8.37216113E-002  1.28576765E-002  4.89545921E-002 -2.48557542E-002  3.28911348E-002 -4.90058989E-002  2.48371552E-002 -3.31310410E-002  8.30348597E-002 -5.38795256E-002 -1.91883574E-001 -8.29752054E-002  5.39144054E-002  1.91879797E-001 -6.61837540E-003  1.86154464E-001  2.25776818E-003  6.59548032E-003 -1.86137712E-001 -2.23357980E-003 -7.62054937E-002 -6.16503519E-002  1.92402006E-001  7.60918897E-002  6.16114193E-002 -1.92479052E-001  4.21756286E-004 -8.30812200E-003  1.15154160E-002 -4.83515631E-004  8.39866763E-003 -1.15890603E-002  9.68063106E-002  1.19636783E-002  1.18670053E-001 -9.68547126E-002 -1.19954592E-002 -1.18531865E-001 -9.84186155E-002  2.16129108E-002 -1.28812052E-001  9.84217647E-002 -2.16848933E-002  1.28736073E-001</v>
    <v>  -1.75095397E-003 -8.37757131E-002  1.28291333E-002  1.72791435E-003  8.37343404E-002 -1.26705441E-002 -4.89873113E-002  2.47416185E-002 -3.30849721E-002  4.89527162E-002 -2.48923339E-002  3.28445979E-002  5.01520987E-002  1.50501335E-002  1.69901352E-002 -5.01754999E-002 -1.52226339E-002 -1.68185092E-002 -7.53488275E-003 -4.43654860E-002  3.72106634E-001  7.43394235E-003  4.42703221E-002 -3.72142159E-001 -3.01806394E-003  1.89448328E-001 -1.17743830E-002  2.94672241E-003 -1.89560835E-001  1.18308910E-002  9.02631771E-003 -4.90655727E-002 -3.57984032E-001 -9.02135803E-003  4.89457901E-002  3.58062123E-001  9.84012169E-002 -2.17136160E-002  1.28690929E-001 -9.84288108E-002  2.15222845E-002 -1.28776805E-001 -4.84818644E-004  8.35636977E-003 -1.15353023E-002  4.79555603E-004 -8.35437497E-003  1.15107235E-002 -9.68442297E-002 -1.20387961E-002 -1.18545798E-001  9.67801800E-002  1.19510997E-002  1.18697717E-001 -6.56867768E-003  1.86145950E-001  2.27456378E-003  6.58469188E-003 -1.86238806E-001 -2.20628414E-003 -7.62275648E-002 -6.16084598E-002  1.92392482E-001  7.61008612E-002  6.15507503E-002 -1.92435980E-001  8.30307040E-002 -5.38879550E-002 -1.91869438E-001 -8.30081025E-002  5.37881380E-002  1.91946059E-001</v>
    <v>  -1.44157028E-002 -6.18734750E-003 -3.71505011E-001  1.43670208E-002  6.14479264E-003  3.71534577E-001 -2.16210361E-003 -9.02241720E-002  2.75205094E-001  2.15452356E-003  9.02280726E-002 -2.75093712E-001  1.49825472E-003  1.09364497E-001  2.52227869E-001 -1.51173284E-003 -1.09470054E-001 -2.52136574E-001 -1.54872404E-002  7.78373239E-002  4.97850595E-002  1.54995957E-002 -7.78691664E-002 -4.96708956E-002  8.05224307E-002  4.28485089E-003 -5.83855887E-002 -8.05483106E-002 -4.37636810E-003  5.83179212E-002 -1.70924172E-002 -7.04070254E-002  2.89721838E-002  1.70865845E-002  7.03417740E-002 -2.87236397E-002  4.18801890E-002  1.51166599E-001 -4.18728225E-002 -4.18710358E-002 -1.51159424E-001  4.19625319E-002 -1.12496011E-001 -8.10068900E-004  2.13327305E-001  1.12443444E-001  7.60213969E-004 -2.13331206E-001  4.45211517E-002 -1.40490588E-001 -6.33326831E-002 -4.44792800E-002  1.40423985E-001  6.34548139E-002  8.32473685E-002  8.10488842E-003  1.69780751E-001 -8.33329990E-002 -8.18562587E-003 -1.69693296E-001 -6.75109735E-002 -2.42403219E-002 -1.05524015E-001  6.75473830E-002  2.41477669E-002  1.05543298E-001 -5.75670604E-002  2.35972763E-002 -1.06407725E-001  5.75543756E-002 -2.35703920E-002  1.06479864E-001</v>
    <v>   8.05652600E-002  4.36099228E-003 -5.84089574E-002 -8.04939051E-002 -4.40900252E-003  5.84080498E-002 -1.70910397E-002 -7.04049840E-002  2.85836301E-002  1.71266347E-002  7.03465269E-002 -2.89210117E-002 -1.54789345E-002  7.78252431E-002  4.96097441E-002  1.55241986E-002 -7.79454637E-002 -4.98767051E-002 -1.50531636E-003 -1.09420015E-001 -2.52310549E-001  1.53434866E-003  1.09356726E-001  2.52039858E-001  1.43588632E-002  6.14233826E-003  3.71461604E-001 -1.43405558E-002 -6.22125351E-003 -3.71654624E-001  2.15631516E-003  9.01895315E-002 -2.75134781E-001 -2.12919928E-003 -9.02952071E-002  2.75063640E-001 -5.75346378E-002  2.35297892E-002 -1.06580314E-001  5.75264851E-002 -2.36635251E-002  1.06413509E-001  8.33228863E-002  8.16543740E-003  1.69610190E-001 -8.32489175E-002 -8.21649094E-003 -1.69839238E-001 -6.74999078E-002 -2.41806922E-002 -1.05559358E-001  6.75372883E-002  2.41914502E-002  1.05487755E-001  1.12523427E-001  7.21188180E-004 -2.13314297E-001 -1.12432657E-001 -8.46184244E-004  2.13265087E-001 -4.44766442E-002  1.40471467E-001  6.33408513E-002  4.44713321E-002 -1.40497987E-001 -6.35462009E-002 -4.19082637E-002 -1.51166951E-001  4.18851414E-002  4.18979786E-002  1.51137364E-001 -4.20139967E-002</v>
    <v>   2.31135103E-001 -2.86934678E-002 -5.70383869E-003  2.31149301E-001 -2.86974389E-002 -5.60522804E-003  2.23440520E-001 -2.74719758E-002 -4.92161339E-003  2.23458893E-001 -2.74691076E-002 -4.78463813E-003  2.24195969E-001 -2.53434371E-002 -4.64626431E-003  2.24181377E-001 -2.53166678E-002 -4.64770583E-003  2.24163213E-001 -2.53002340E-002 -4.76340133E-003  2.24201972E-001 -2.53381830E-002 -4.88841995E-003  2.31125319E-001 -2.87565681E-002 -5.63239006E-003  2.31127482E-001 -2.87477345E-002 -5.57620544E-003  2.23464385E-001 -2.74711435E-002 -4.77965347E-003  2.23450314E-001 -2.74089276E-002 -4.81318976E-003  1.75299144E-001 -1.98022010E-002 -4.55625413E-003  1.75239069E-001 -1.97899757E-002 -4.51568198E-003  1.76449061E-001 -2.03280124E-002 -1.14280565E-003  1.76442041E-001 -2.03484233E-002 -1.08774048E-003  1.75751098E-001 -2.19441104E-002 -5.99455142E-003  1.75721119E-001 -2.19150096E-002 -5.99180890E-003  1.76455440E-001 -2.03748032E-002 -1.10995126E-003  1.76465896E-001 -2.04006495E-002 -1.21361256E-003  1.75769659E-001 -2.19041140E-002 -6.02840106E-003  1.75720661E-001 -2.18518071E-002 -6.08580015E-003  1.75301006E-001 -1.98085637E-002 -4.44660778E-003  1.75290595E-001 -1.98053344E-002 -4.41826007E-003</v>
    <v>  -2.80254987E-002 -2.40420492E-001  1.23696934E-002 -2.79668622E-002 -2.40398344E-001  1.23406380E-002 -2.89663724E-002 -2.18745013E-001  1.08815406E-002 -2.89642960E-002 -2.18721811E-001  1.10144511E-002 -2.30385823E-002 -2.23811863E-001  1.10034527E-002 -2.29833573E-002 -2.23720870E-001  1.11445741E-002 -2.30003705E-002 -2.23791974E-001  1.12723230E-002 -2.30023167E-002 -2.23822396E-001  1.13098129E-002 -2.80104031E-002 -2.40374515E-001  1.24733623E-002 -2.79970173E-002 -2.40272406E-001  1.24064914E-002 -2.89965632E-002 -2.18737681E-001  1.08972619E-002 -2.89730392E-002 -2.18768944E-001  1.05329946E-002 -2.31760520E-002 -1.74655130E-001  1.60211715E-002 -2.31707666E-002 -1.74577333E-001  1.60501430E-002 -1.98620739E-002 -1.70822193E-001  6.78381891E-003 -1.99285972E-002 -1.70787428E-001  6.85111560E-003 -1.91924911E-002 -1.74541460E-001  3.32677382E-003 -1.92919129E-002 -1.74550537E-001  3.22885313E-003 -1.99322313E-002 -1.70752241E-001  6.83959831E-003 -1.98918382E-002 -1.70655215E-001  6.73821316E-003 -1.91941186E-002 -1.74561597E-001  3.46376161E-003 -1.92656723E-002 -1.74570670E-001  3.45845785E-003 -2.32202207E-002 -1.74648461E-001  1.60154054E-002 -2.31912702E-002 -1.74714994E-001  1.58033791E-002</v>
    <v>   6.87200987E-003  1.15564294E-002  2.51984274E-001  6.74032448E-003  1.15193043E-002  2.52063592E-001  6.33451849E-003  1.00918160E-002  2.19215574E-001  6.29309013E-003  1.01273162E-002  2.19406595E-001  6.00138099E-003  1.07333032E-002  2.19380485E-001  5.96139267E-003  1.07391605E-002  2.19504432E-001  5.95941712E-003  1.06665214E-002  2.19134920E-001  5.97588402E-003  1.07891169E-002  2.19560797E-001  6.75568399E-003  1.14714032E-002  2.52067382E-001  6.79978177E-003  1.15056743E-002  2.51981839E-001  6.32107840E-003  1.01627376E-002  2.19249496E-001  6.33688192E-003  1.00776293E-002  2.19600677E-001 -4.50298492E-004 -1.15605453E-003  1.71639603E-001 -3.79082595E-004 -1.13623335E-003  1.71874475E-001  1.58861072E-002  8.10924102E-003  1.72717587E-001  1.58240852E-002  8.10411823E-003  1.72797997E-001 -6.86734774E-004  1.76897454E-002  1.72468436E-001 -6.06790168E-004  1.76878449E-002  1.72632314E-001  1.59345996E-002  8.03345569E-003  1.72623400E-001  1.58010222E-002  8.06808310E-003  1.72908416E-001 -6.38175817E-004  1.77472550E-002  1.72481585E-001 -7.08214282E-004  1.76473464E-002  1.72493196E-001 -3.92575697E-004 -1.19332075E-003  1.71836010E-001 -4.24091879E-004 -1.07663445E-003  1.71835858E-001</v>
    <v>   7.85250669E-004 -1.10630527E-001  6.10538909E-003  7.64431526E-004 -1.10550260E-001  6.14062456E-003  2.37858546E-002  4.36793457E-002  2.65429528E-001  2.38415190E-002  4.36286146E-002  2.65261133E-001 -2.44093832E-002  3.99448611E-002 -2.70605398E-001 -2.44042460E-002  3.98497914E-002 -2.70499102E-001  2.45341027E-002 -3.97374409E-002  2.70739566E-001  2.45433262E-002 -3.97454171E-002  2.70612484E-001 -6.59659529E-004  1.10861628E-001 -6.01174173E-003 -6.58694832E-004  1.10740210E-001 -6.11367577E-003 -2.36874218E-002 -4.34803062E-002 -2.65408247E-001 -2.36749729E-002 -4.34846364E-002 -2.65177972E-001  2.79945659E-002  4.68989442E-002  1.89181981E-001  2.80088722E-002  4.68273848E-002  1.89072772E-001 -7.57954618E-004 -1.15142136E-001 -4.06618447E-003 -7.61933766E-004 -1.15103377E-001 -4.13066482E-003 -2.75937568E-002  5.01766394E-002 -1.84822440E-001 -2.75736022E-002  5.01502525E-002 -1.84665463E-001  8.51874797E-004  1.15322480E-001  4.13310298E-003  8.37575964E-004  1.15221198E-001  4.15592796E-003  2.76128456E-002 -5.00242564E-002  1.84860966E-001  2.77074069E-002 -5.00510874E-002  1.84786491E-001 -2.78301290E-002 -4.67478316E-002 -1.89097924E-001 -2.79120413E-002 -4.66966134E-002 -1.89056288E-001</v>
    <v>   2.56735660E-002  2.85014088E-003  3.30316276E-001  2.63282138E-002  2.84080923E-003  3.32736934E-001 -1.64590217E-002  7.25846608E-002 -1.43593479E-001 -1.56855357E-002  7.27905162E-002 -1.41657916E-001 -1.53678994E-002 -7.95613946E-002 -1.34225754E-001 -1.46104103E-002 -7.96764330E-002 -1.32520316E-001  1.46978846E-002  7.95080428E-002  1.34863882E-001  1.53616246E-002  7.95994005E-002  1.31873446E-001 -2.62326571E-002 -2.90600547E-003 -3.29495316E-001 -2.56647911E-002 -2.86329431E-003 -3.33555613E-001  1.57970322E-002 -7.27018714E-002  1.44181633E-001  1.64113128E-002 -7.27890430E-002  1.41064137E-001  7.75513522E-003 -1.00790714E-001  1.06858725E-001  6.48895366E-003 -1.00877959E-001  1.07222403E-001 -4.64850654E-002  7.20191330E-005 -2.05610037E-001 -4.79031555E-002  4.32811618E-005 -2.05910312E-001  7.63032107E-003  9.79491889E-002  1.15030977E-001  6.35832560E-003  9.81304070E-002  1.15253996E-001  4.72393447E-002 -1.19595033E-004  2.07050382E-001  4.72219619E-002 -9.11186953E-005  2.04478989E-001 -7.10625325E-003 -9.79640874E-002 -1.13745821E-001 -6.83442473E-003 -9.81912753E-002 -1.16545095E-001 -7.28188342E-003  1.00678105E-001 -1.05656587E-001 -6.89453306E-003  1.00916446E-001 -1.08441605E-001</v>
    <v>   3.03178439E-002 -3.87439089E-003 -3.77075174E-001 -3.04612367E-002  3.88356118E-003  3.75790607E-001  3.30358608E-002 -1.53449084E-002 -2.65061885E-001 -3.30157054E-002  1.51177336E-002  2.65418015E-001  3.32312407E-002  1.07035425E-002 -2.66123261E-001 -3.32169593E-002 -1.03819395E-002  2.66420264E-001 -7.15109075E-002  1.18077096E-002 -7.02369431E-002  7.14044956E-002 -1.20567554E-002  6.97024463E-002 -6.34279979E-002 -6.08658614E-004 -1.02063388E-001  6.34624966E-002  6.05538734E-004  1.03070485E-001 -7.14301384E-002 -1.20604815E-002 -7.07378589E-002  7.13109965E-002  1.23458511E-002  7.01736823E-002  5.55741293E-002  2.39043813E-002 -2.21233858E-001 -5.56209531E-002 -2.35419829E-002  2.20778166E-001  2.35029639E-002 -2.00451923E-003 -1.86504804E-001 -2.33766663E-002  2.02072047E-003  1.87106312E-001  5.61939220E-002 -2.77855865E-002 -2.22432954E-001 -5.62288677E-002  2.74864503E-002  2.21925397E-001  1.11350677E-001  2.45168839E-004  8.37079003E-002 -1.11584210E-001 -2.24066163E-004 -8.44887697E-002  8.77307523E-002 -6.95389494E-003  3.46873956E-002 -8.77412785E-002  7.27939846E-003 -3.43826030E-002  8.79356497E-002  6.61393461E-003  3.50194809E-002 -8.79749274E-002 -6.93640417E-003 -3.47246887E-002</v>
    <v>  -6.36375841E-002 -5.92645546E-004 -1.04459166E-001  6.33038864E-002  6.41261691E-004  1.00560131E-001 -7.12775498E-002 -1.26029652E-002 -6.96552479E-002  7.14693343E-002  1.17948837E-002  7.13602540E-002 -7.13561179E-002  1.24334837E-002 -6.91446357E-002  7.15382658E-002 -1.13822580E-002  7.08001696E-002 -3.33232722E-002 -1.09899467E-002  2.65598280E-001  3.31062358E-002  1.01396258E-002 -2.67062137E-001 -3.02981587E-002  3.98388042E-003  3.78469885E-001  3.05944591E-002 -3.78733559E-003 -3.74275520E-001 -3.31284688E-002  1.57228309E-002  2.64463617E-001  3.29129507E-002 -1.47314578E-002 -2.66029677E-001  8.79402230E-002  7.35258584E-003  3.42746195E-002 -8.80040037E-002 -6.11487226E-003 -3.55177198E-002  1.11746057E-001  2.82079976E-004  8.53051678E-002 -1.11126244E-001 -2.01827644E-004 -8.27700066E-002  8.76903498E-002 -7.65278740E-003  3.39013936E-002 -8.77617635E-002  6.55222012E-003 -3.52176562E-002 -2.37514016E-002  2.06342401E-003  1.85619123E-001  2.31526133E-002 -1.97594438E-003 -1.88005251E-001 -5.62058956E-002  2.82601861E-002  2.22954895E-001  5.62054715E-002 -2.69674289E-002 -2.21462013E-001 -5.55775766E-002 -2.42775705E-002  2.21683245E-001  5.56251066E-002  2.31620458E-002 -2.20294647E-001</v>
   </varray>
  </dynmat>
  <time name="totalsc">22357.4322557.33</time>
  <eigenvalues>
   <array>
    <dimension dim="1">band</dimension>
    <dimension dim="2">kpoint</dimension>
    <dimension dim="3">spin</dimension>
    <field>eigene</field>
    <field>occ</field>
    <set>
     <set comment="spin 1">
      <set comment="kpoint 1">
       <r>  -25.8259    1.0000 </r>
       <r>  -25.8259    1.0000 </r>
       <r>  -25.8248    1.0000 </r>
       <r>  -25.8247    1.0000 </r>
       <r>  -25.8240    1.0000 </r>
       <r>  -25.8240    1.0000 </r>
       <r>  -25.8234    1.0000 </r>
       <r>  -25.8234    1.0000 </r>
       <r>  -25.8233    1.0000 </r>
       <r>  -25.8233    1.0000 </r>
       <r>  -25.8232    1.0000 </r>
       <r>  -25.8232    1.0000 </r>
       <r>  -25.8231    1.0000 </r>
       <r>  -25.8231    1.0000 </r>
       <r>  -25.8228    1.0000 </r>
       <r>  -25.8228    1.0000 </r>
       <r>  -25.8227    1.0000 </r>
       <r>  -25.8227    1.0000 </r>
       <r>  -25.8221    1.0000 </r>
       <r>  -25.8221    1.0000 </r>
       <r>  -25.8208    1.0000 </r>
       <r>  -25.8208    1.0000 </r>
       <r>  -25.8194    1.0000 </r>
       <r>  -25.8194    1.0000 </r>
       <r>  -25.7954    1.0000 </r>
       <r>  -25.7954    1.0000 </r>
       <r>  -25.7951    1.0000 </r>
       <r>  -25.7951    1.0000 </r>
       <r>  -25.7949    1.0000 </r>
       <r>  -25.7949    1.0000 </r>
       <r>  -25.7949    1.0000 </r>
       <r>  -25.7948    1.0000 </r>
       <r>  -25.7948    1.0000 </r>
       <r>  -25.7948    1.0000 </r>
       <r>  -25.7946    1.0000 </r>
       <r>  -25.7945    1.0000 </r>
       <r>  -25.7943    1.0000 </r>
       <r>  -25.7942    1.0000 </r>
       <r>  -25.7941    1.0000 </r>
       <r>  -25.7940    1.0000 </r>
       <r>  -25.7940    1.0000 </r>
       <r>  -25.7940    1.0000 </r>
       <r>  -25.7939    1.0000 </r>
       <r>  -25.7939    1.0000 </r>
       <r>  -25.7939    1.0000 </r>
       <r>  -25.7939    1.0000 </r>
       <r>  -25.7936    1.0000 </r>
       <r>  -25.7936    1.0000 </r>
       <r>  -22.8741    1.0000 </r>
       <r>  -22.8739    1.0000 </r>
       <r>  -22.8720    1.0000 </r>
       <r>  -22.8712    1.0000 </r>
       <r>  -22.8706    1.0000 </r>
       <r>  -22.8706    1.0000 </r>
       <r>  -22.8699    1.0000 </r>
       <r>  -22.8696    1.0000 </r>
       <r>  -22.8696    1.0000 </r>
       <r>  -22.8696    1.0000 </r>
       <r>  -22.8696    1.0000 </r>
       <r>  -22.8688    1.0000 </r>
       <r>  -22.8688    1.0000 </r>
       <r>  -22.8686    1.0000 </r>
       <r>  -22.8684    1.0000 </r>
       <r>  -22.8681    1.0000 </r>
       <r>  -22.8681    1.0000 </r>
       <r>  -22.8678    1.0000 </r>
       <r>  -22.8678    1.0000 </r>
       <r>  -22.8677    1.0000 </r>
       <r>  -22.8645    1.0000 </r>
       <r>  -22.8645    1.0000 </r>
       <r>  -22.8602    1.0000 </r>
       <r>  -22.8602    1.0000 </r>
       <r>  -22.8528    1.0000 </r>
       <r>  -22.8528    1.0000 </r>
       <r>  -22.8495    1.0000 </r>
       <r>  -22.8495    1.0000 </r>
       <r>  -22.8473    1.0000 </r>
       <r>  -22.8473    1.0000 </r>
       <r>  -22.8471    1.0000 </r>
       <r>  -22.8471    1.0000 </r>
       <r>  -22.8471    1.0000 </r>
       <r>  -22.8468    1.0000 </r>
       <r>  -22.8468    1.0000 </r>
       <r>  -22.8463    1.0000 </r>
       <r>  -22.8463    1.0000 </r>
       <r>  -22.8463    1.0000 </r>
       <r>  -22.8462    1.0000 </r>
       <r>  -22.8462    1.0000 </r>
       <r>  -22.8459    1.0000 </r>
       <r>  -22.8459    1.0000 </r>
       <r>  -22.8457    1.0000 </r>
       <r>  -22.8457    1.0000 </r>
       <r>  -22.8451    1.0000 </r>
       <r>  -22.8449    1.0000 </r>
       <r>  -22.8435    1.0000 </r>
       <r>  -22.8435    1.0000 </r>
       <r>  -22.8283    1.0000 </r>
       <r>  -22.8278    1.0000 </r>
       <r>  -22.8272    1.0000 </r>
       <r>  -22.8262    1.0000 </r>
       <r>  -22.8255    1.0000 </r>
       <r>  -22.8255    1.0000 </r>
       <r>  -22.8252    1.0000 </r>
       <r>  -22.8246    1.0000 </r>
       <r>  -22.8246    1.0000 </r>
       <r>  -22.8244    1.0000 </r>
       <r>  -22.8244    1.0000 </r>
       <r>  -22.8243    1.0000 </r>
       <r>  -22.8237    1.0000 </r>
       <r>  -22.8237    1.0000 </r>
       <r>  -22.8236    1.0000 </r>
       <r>  -22.8236    1.0000 </r>
       <r>  -22.8232    1.0000 </r>
       <r>  -22.8231    1.0000 </r>
       <r>  -22.8231    1.0000 </r>
       <r>  -22.8230    1.0000 </r>
       <r>  -22.8230    1.0000 </r>
       <r>  -22.8229    1.0000 </r>
       <r>  -22.8226    1.0000 </r>
       <r>  -22.8226    1.0000 </r>
       <r>  -13.4878    1.0000 </r>
       <r>  -13.4856    1.0000 </r>
       <r>  -13.2169    1.0000 </r>
       <r>  -13.2109    1.0000 </r>
       <r>  -12.7931    1.0000 </r>
       <r>  -12.7931    1.0000 </r>
       <r>  -12.7854    1.0000 </r>
       <r>  -12.7854    1.0000 </r>
       <r>  -12.7241    1.0000 </r>
       <r>  -12.7167    1.0000 </r>
       <r>  -12.5752    1.0000 </r>
       <r>  -12.5752    1.0000 </r>
       <r>  -12.5680    1.0000 </r>
       <r>  -12.5680    1.0000 </r>
       <r>  -12.2076    1.0000 </r>
       <r>  -12.2040    1.0000 </r>
       <r>  -12.2027    1.0000 </r>
       <r>  -12.2027    1.0000 </r>
       <r>  -12.1969    1.0000 </r>
       <r>  -12.1969    1.0000 </r>
       <r>  -11.8584    1.0000 </r>
       <r>  -11.8584    1.0000 </r>
       <r>  -11.8464    1.0000 </r>
       <r>  -11.8464    1.0000 </r>
       <r>  -10.1680    1.0000 </r>
       <r>  -10.1680    1.0000 </r>
       <r>  -10.0927    1.0000 </r>
       <r>  -10.0927    1.0000 </r>
       <r>   -9.8911    1.0000 </r>
       <r>   -9.8757    1.0000 </r>
       <r>   -9.8605    1.0000 </r>
       <r>   -9.8605    1.0000 </r>
       <r>   -9.8139    1.0000 </r>
       <r>   -9.8139    1.0000 </r>
       <r>   -9.5308    1.0000 </r>
       <r>   -9.5308    1.0000 </r>
       <r>   -9.4937    1.0000 </r>
       <r>   -9.4937    1.0000 </r>
       <r>   -9.4065    1.0000 </r>
       <r>   -9.3650    1.0000 </r>
       <r>   -9.3367    1.0000 </r>
       <r>   -9.3367    1.0000 </r>
       <r>   -9.2893    1.0000 </r>
       <r>   -9.2893    1.0000 </r>
       <r>   -9.0722    1.0000 </r>
       <r>   -9.0329    1.0000 </r>
       <r>   -8.9699    1.0000 </r>
       <r>   -8.9557    1.0000 </r>
       <r>   -5.3171    1.0000 </r>
       <r>   -5.3171    1.0000 </r>
       <r>   -5.0057    1.0000 </r>
       <r>   -5.0057    1.0000 </r>
       <r>   -4.9910    1.0000 </r>
       <r>   -4.9741    1.0000 </r>
       <r>   -4.9741    1.0000 </r>
       <r>   -4.8991    1.0000 </r>
       <r>   -4.8509    1.0000 </r>
       <r>   -4.8509    1.0000 </r>
       <r>   -4.8054    1.0000 </r>
       <r>   -4.7540    1.0000 </r>
       <r>   -4.7540    1.0000 </r>
       <r>   -4.6795    1.0000 </r>
       <r>   -4.6795    1.0000 </r>
       <r>   -4.6264    1.0000 </r>
       <r>   -4.6264    1.0000 </r>
       <r>   -4.5244    1.0000 </r>
       <r>   -4.3240    1.0000 </r>
       <r>   -4.3240    1.0000 </r>
       <r>   -4.2529    1.0000 </r>
       <r>   -4.2529    1.0000 </r>
       <r>   -4.1510    1.0000 </r>
       <r>   -4.1306    1.0000 </r>
       <r>   -4.1306    1.0000 </r>
       <r>   -3.8813    1.0000 </r>
       <r>   -3.8813    1.0000 </r>
       <r>   -3.7889    1.0000 </r>
       <r>   -3.7889    1.0000 </r>
       <r>   -3.7584    1.0000 </r>
       <r>   -3.7418    1.0000 </r>
       <r>   -3.6817    1.0000 </r>
       <r>   -3.6817    1.0000 </r>
       <r>   -3.5709    1.0000 </r>
       <r>   -3.5652    1.0000 </r>
       <r>   -3.5652    1.0000 </r>
       <r>   -3.4760    1.0000 </r>
       <r>   -3.4760    1.0000 </r>
       <r>   -3.4348    1.0000 </r>
       <r>   -3.3266    1.0000 </r>
       <r>   -3.3266    1.0000 </r>
       <r>   -3.2807    1.0000 </r>
       <r>   -3.2807    1.0000 </r>
       <r>   -3.2550    1.0000 </r>
       <r>   -3.2550    1.0000 </r>
       <r>   -3.2285    1.0000 </r>
       <r>   -3.1108    1.0000 </r>
       <r>   -3.1068    1.0000 </r>
       <r>   -3.0446    1.0000 </r>
       <r>   -3.0446    1.0000 </r>
       <r>   -2.9313    1.0000 </r>
       <r>   -2.9087    1.0000 </r>
       <r>   -2.9087    1.0000 </r>
       <r>   -2.8785    1.0000 </r>
       <r>   -2.8671    1.0000 </r>
       <r>   -2.6429    1.0000 </r>
       <r>   -2.6153    1.0000 </r>
       <r>   -2.6153    1.0000 </r>
       <r>   -2.5811    1.0000 </r>
       <r>   -2.5811    1.0000 </r>
       <r>   -2.5086    1.0000 </r>
       <r>   -2.5086    1.0000 </r>
       <r>   -2.4692    1.0000 </r>
       <r>   -2.4615    1.0000 </r>
       <r>   -2.3857    1.0000 </r>
       <r>   -2.3857    1.0000 </r>
       <r>   -2.1840    1.0000 </r>
       <r>   -2.0759    1.0000 </r>
       <r>   -2.0594    1.0000 </r>
       <r>   -2.0038    1.0000 </r>
       <r>   -1.7501    1.0000 </r>
       <r>   -1.6300    1.0000 </r>
       <r>   -0.8524    0.0000 </r>
       <r>   -0.8001    0.0000 </r>
       <r>   -0.8001    0.0000 </r>
       <r>   -0.6579    0.0000 </r>
       <r>   -0.6226    0.0000 </r>
       <r>   -0.5976    0.0000 </r>
       <r>   -0.5622    0.0000 </r>
       <r>   -0.5622    0.0000 </r>
       <r>   -0.5444    0.0000 </r>
       <r>   -0.5163    0.0000 </r>
       <r>   -0.4574    0.0000 </r>
       <r>   -0.4574    0.0000 </r>
       <r>   -0.4571    0.0000 </r>
       <r>   -0.4549    0.0000 </r>
       <r>   -0.4549    0.0000 </r>
       <r>   -0.3855    0.0000 </r>
       <r>   -0.1733    0.0000 </r>
       <r>   -0.1733    0.0000 </r>
       <r>   -0.1634    0.0000 </r>
       <r>   -0.1634    0.0000 </r>
       <r>   -0.1332    0.0000 </r>
       <r>   -0.1332    0.0000 </r>
       <r>    0.1863    0.0000 </r>
       <r>    0.1863    0.0000 </r>
       <r>    0.3917    0.0000 </r>
       <r>    0.4830    0.0000 </r>
       <r>    0.5063    0.0000 </r>
       <r>    0.5176    0.0000 </r>
       <r>    0.5176    0.0000 </r>
       <r>    0.6689    0.0000 </r>
       <r>    0.6739    0.0000 </r>
       <r>    0.6739    0.0000 </r>
       <r>    0.6968    0.0000 </r>
       <r>    0.7147    0.0000 </r>
       <r>    0.7147    0.0000 </r>
       <r>    0.7804    0.0000 </r>
       <r>    0.8134    0.0000 </r>
       <r>    0.8134    0.0000 </r>
       <r>    0.8749    0.0000 </r>
       <r>    0.8749    0.0000 </r>
       <r>    1.0412    0.0000 </r>
       <r>    1.0412    0.0000 </r>
       <r>    1.1260    0.0000 </r>
       <r>    1.1260    0.0000 </r>
       <r>    1.2453    0.0000 </r>
       <r>    1.2459    0.0000 </r>
       <r>    1.2614    0.0000 </r>
       <r>    1.2732    0.0000 </r>
       <r>    1.3003    0.0000 </r>
       <r>    1.3003    0.0000 </r>
       <r>    1.3058    0.0000 </r>
       <r>    1.3058    0.0000 </r>
       <r>    1.3180    0.0000 </r>
       <r>    1.4449    0.0000 </r>
       <r>    1.4457    0.0000 </r>
       <r>    1.4930    0.0000 </r>
       <r>    1.4981    0.0000 </r>
      </set>
      <set comment="kpoint 2">
       <r>  -25.8259    1.0000 </r>
       <r>  -25.8259    1.0000 </r>
       <r>  -25.8248    1.0000 </r>
       <r>  -25.8247    1.0000 </r>
       <r>  -25.8240    1.0000 </r>
       <r>  -25.8240    1.0000 </r>
       <r>  -25.8234    1.0000 </r>
       <r>  -25.8234    1.0000 </r>
       <r>  -25.8233    1.0000 </r>
       <r>  -25.8233    1.0000 </r>
       <r>  -25.8232    1.0000 </r>
       <r>  -25.8232    1.0000 </r>
       <r>  -25.8231    1.0000 </r>
       <r>  -25.8231    1.0000 </r>
       <r>  -25.8228    1.0000 </r>
       <r>  -25.8228    1.0000 </r>
       <r>  -25.8227    1.0000 </r>
       <r>  -25.8227    1.0000 </r>
       <r>  -25.8221    1.0000 </r>
       <r>  -25.8221    1.0000 </r>
       <r>  -25.8208    1.0000 </r>
       <r>  -25.8208    1.0000 </r>
       <r>  -25.8194    1.0000 </r>
       <r>  -25.8194    1.0000 </r>
       <r>  -25.7954    1.0000 </r>
       <r>  -25.7954    1.0000 </r>
       <r>  -25.7951    1.0000 </r>
       <r>  -25.7951    1.0000 </r>
       <r>  -25.7949    1.0000 </r>
       <r>  -25.7949    1.0000 </r>
       <r>  -25.7949    1.0000 </r>
       <r>  -25.7948    1.0000 </r>
       <r>  -25.7948    1.0000 </r>
       <r>  -25.7948    1.0000 </r>
       <r>  -25.7946    1.0000 </r>
       <r>  -25.7945    1.0000 </r>
       <r>  -25.7943    1.0000 </r>
       <r>  -25.7942    1.0000 </r>
       <r>  -25.7941    1.0000 </r>
       <r>  -25.7940    1.0000 </r>
       <r>  -25.7940    1.0000 </r>
       <r>  -25.7940    1.0000 </r>
       <r>  -25.7939    1.0000 </r>
       <r>  -25.7939    1.0000 </r>
       <r>  -25.7939    1.0000 </r>
       <r>  -25.7939    1.0000 </r>
       <r>  -25.7936    1.0000 </r>
       <r>  -25.7936    1.0000 </r>
       <r>  -22.8741    1.0000 </r>
       <r>  -22.8739    1.0000 </r>
       <r>  -22.8720    1.0000 </r>
       <r>  -22.8712    1.0000 </r>
       <r>  -22.8706    1.0000 </r>
       <r>  -22.8706    1.0000 </r>
       <r>  -22.8699    1.0000 </r>
       <r>  -22.8696    1.0000 </r>
       <r>  -22.8696    1.0000 </r>
       <r>  -22.8696    1.0000 </r>
       <r>  -22.8696    1.0000 </r>
       <r>  -22.8688    1.0000 </r>
       <r>  -22.8688    1.0000 </r>
       <r>  -22.8686    1.0000 </r>
       <r>  -22.8684    1.0000 </r>
       <r>  -22.8681    1.0000 </r>
       <r>  -22.8681    1.0000 </r>
       <r>  -22.8678    1.0000 </r>
       <r>  -22.8678    1.0000 </r>
       <r>  -22.8677    1.0000 </r>
       <r>  -22.8645    1.0000 </r>
       <r>  -22.8645    1.0000 </r>
       <r>  -22.8602    1.0000 </r>
       <r>  -22.8602    1.0000 </r>
       <r>  -22.8528    1.0000 </r>
       <r>  -22.8528    1.0000 </r>
       <r>  -22.8495    1.0000 </r>
       <r>  -22.8495    1.0000 </r>
       <r>  -22.8473    1.0000 </r>
       <r>  -22.8473    1.0000 </r>
       <r>  -22.8471    1.0000 </r>
       <r>  -22.8471    1.0000 </r>
       <r>  -22.8471    1.0000 </r>
       <r>  -22.8468    1.0000 </r>
       <r>  -22.8468    1.0000 </r>
       <r>  -22.8463    1.0000 </r>
       <r>  -22.8463    1.0000 </r>
       <r>  -22.8463    1.0000 </r>
       <r>  -22.8462    1.0000 </r>
       <r>  -22.8462    1.0000 </r>
       <r>  -22.8459    1.0000 </r>
       <r>  -22.8459    1.0000 </r>
       <r>  -22.8457    1.0000 </r>
       <r>  -22.8457    1.0000 </r>
       <r>  -22.8451    1.0000 </r>
       <r>  -22.8449    1.0000 </r>
       <r>  -22.8435    1.0000 </r>
       <r>  -22.8435    1.0000 </r>
       <r>  -22.8283    1.0000 </r>
       <r>  -22.8278    1.0000 </r>
       <r>  -22.8272    1.0000 </r>
       <r>  -22.8262    1.0000 </r>
       <r>  -22.8255    1.0000 </r>
       <r>  -22.8255    1.0000 </r>
       <r>  -22.8252    1.0000 </r>
       <r>  -22.8246    1.0000 </r>
       <r>  -22.8246    1.0000 </r>
       <r>  -22.8244    1.0000 </r>
       <r>  -22.8244    1.0000 </r>
       <r>  -22.8243    1.0000 </r>
       <r>  -22.8237    1.0000 </r>
       <r>  -22.8237    1.0000 </r>
       <r>  -22.8236    1.0000 </r>
       <r>  -22.8236    1.0000 </r>
       <r>  -22.8232    1.0000 </r>
       <r>  -22.8231    1.0000 </r>
       <r>  -22.8231    1.0000 </r>
       <r>  -22.8230    1.0000 </r>
       <r>  -22.8230    1.0000 </r>
       <r>  -22.8229    1.0000 </r>
       <r>  -22.8226    1.0000 </r>
       <r>  -22.8226    1.0000 </r>
       <r>  -13.4878    1.0000 </r>
       <r>  -13.4856    1.0000 </r>
       <r>  -13.2169    1.0000 </r>
       <r>  -13.2109    1.0000 </r>
       <r>  -12.7931    1.0000 </r>
       <r>  -12.7931    1.0000 </r>
       <r>  -12.7854    1.0000 </r>
       <r>  -12.7854    1.0000 </r>
       <r>  -12.7241    1.0000 </r>
       <r>  -12.7167    1.0000 </r>
       <r>  -12.5752    1.0000 </r>
       <r>  -12.5752    1.0000 </r>
       <r>  -12.5680    1.0000 </r>
       <r>  -12.5680    1.0000 </r>
       <r>  -12.2076    1.0000 </r>
       <r>  -12.2040    1.0000 </r>
       <r>  -12.2027    1.0000 </r>
       <r>  -12.2027    1.0000 </r>
       <r>  -12.1969    1.0000 </r>
       <r>  -12.1969    1.0000 </r>
       <r>  -11.8584    1.0000 </r>
       <r>  -11.8584    1.0000 </r>
       <r>  -11.8464    1.0000 </r>
       <r>  -11.8464    1.0000 </r>
       <r>  -10.1680    1.0000 </r>
       <r>  -10.1680    1.0000 </r>
       <r>  -10.0927    1.0000 </r>
       <r>  -10.0927    1.0000 </r>
       <r>   -9.8911    1.0000 </r>
       <r>   -9.8757    1.0000 </r>
       <r>   -9.8605    1.0000 </r>
       <r>   -9.8605    1.0000 </r>
       <r>   -9.8139    1.0000 </r>
       <r>   -9.8139    1.0000 </r>
       <r>   -9.5308    1.0000 </r>
       <r>   -9.5308    1.0000 </r>
       <r>   -9.4937    1.0000 </r>
       <r>   -9.4937    1.0000 </r>
       <r>   -9.4065    1.0000 </r>
       <r>   -9.3650    1.0000 </r>
       <r>   -9.3367    1.0000 </r>
       <r>   -9.3367    1.0000 </r>
       <r>   -9.2893    1.0000 </r>
       <r>   -9.2893    1.0000 </r>
       <r>   -9.0722    1.0000 </r>
       <r>   -9.0329    1.0000 </r>
       <r>   -8.9699    1.0000 </r>
       <r>   -8.9557    1.0000 </r>
       <r>   -5.3171    1.0000 </r>
       <r>   -5.3171    1.0000 </r>
       <r>   -5.0057    1.0000 </r>
       <r>   -5.0057    1.0000 </r>
       <r>   -4.9910    1.0000 </r>
       <r>   -4.9741    1.0000 </r>
       <r>   -4.9741    1.0000 </r>
       <r>   -4.8991    1.0000 </r>
       <r>   -4.8509    1.0000 </r>
       <r>   -4.8509    1.0000 </r>
       <r>   -4.8054    1.0000 </r>
       <r>   -4.7540    1.0000 </r>
       <r>   -4.7540    1.0000 </r>
       <r>   -4.6795    1.0000 </r>
       <r>   -4.6795    1.0000 </r>
       <r>   -4.6264    1.0000 </r>
       <r>   -4.6264    1.0000 </r>
       <r>   -4.5244    1.0000 </r>
       <r>   -4.3240    1.0000 </r>
       <r>   -4.3240    1.0000 </r>
       <r>   -4.2529    1.0000 </r>
       <r>   -4.2529    1.0000 </r>
       <r>   -4.1510    1.0000 </r>
       <r>   -4.1306    1.0000 </r>
       <r>   -4.1306    1.0000 </r>
       <r>   -3.8813    1.0000 </r>
       <r>   -3.8813    1.0000 </r>
       <r>   -3.7889    1.0000 </r>
       <r>   -3.7889    1.0000 </r>
       <r>   -3.7584    1.0000 </r>
       <r>   -3.7418    1.0000 </r>
       <r>   -3.6817    1.0000 </r>
       <r>   -3.6817    1.0000 </r>
       <r>   -3.5709    1.0000 </r>
       <r>   -3.5652    1.0000 </r>
       <r>   -3.5652    1.0000 </r>
       <r>   -3.4760    1.0000 </r>
       <r>   -3.4760    1.0000 </r>
       <r>   -3.4348    1.0000 </r>
       <r>   -3.3266    1.0000 </r>
       <r>   -3.3266    1.0000 </r>
       <r>   -3.2807    1.0000 </r>
       <r>   -3.2807    1.0000 </r>
       <r>   -3.2550    1.0000 </r>
       <r>   -3.2550    1.0000 </r>
       <r>   -3.2285    1.0000 </r>
       <r>   -3.1108    1.0000 </r>
       <r>   -3.1068    1.0000 </r>
       <r>   -3.0446    1.0000 </r>
       <r>   -3.0446    1.0000 </r>
       <r>   -2.9313    1.0000 </r>
       <r>   -2.9087    1.0000 </r>
       <r>   -2.9087    1.0000 </r>
       <r>   -2.8785    1.0000 </r>
       <r>   -2.8671    1.0000 </r>
       <r>   -2.6429    1.0000 </r>
       <r>   -2.6153    1.0000 </r>
       <r>   -2.6153    1.0000 </r>
       <r>   -2.5811    1.0000 </r>
       <r>   -2.5811    1.0000 </r>
       <r>   -2.5086    1.0000 </r>
       <r>   -2.5086    1.0000 </r>
       <r>   -2.4692    1.0000 </r>
       <r>   -2.4615    1.0000 </r>
       <r>   -2.3857    1.0000 </r>
       <r>   -2.3857    1.0000 </r>
       <r>   -2.1840    1.0000 </r>
       <r>   -2.0759    1.0000 </r>
       <r>   -2.0594    1.0000 </r>
       <r>   -2.0038    1.0000 </r>
       <r>   -1.7501    1.0000 </r>
       <r>   -1.6300    1.0000 </r>
       <r>   -0.8524    0.0000 </r>
       <r>   -0.8001    0.0000 </r>
       <r>   -0.8001    0.0000 </r>
       <r>   -0.6579    0.0000 </r>
       <r>   -0.6226    0.0000 </r>
       <r>   -0.5976    0.0000 </r>
       <r>   -0.5622    0.0000 </r>
       <r>   -0.5622    0.0000 </r>
       <r>   -0.5444    0.0000 </r>
       <r>   -0.5163    0.0000 </r>
       <r>   -0.4574    0.0000 </r>
       <r>   -0.4574    0.0000 </r>
       <r>   -0.4571    0.0000 </r>
       <r>   -0.4549    0.0000 </r>
       <r>   -0.4549    0.0000 </r>
       <r>   -0.3855    0.0000 </r>
       <r>   -0.1733    0.0000 </r>
       <r>   -0.1733    0.0000 </r>
       <r>   -0.1634    0.0000 </r>
       <r>   -0.1634    0.0000 </r>
       <r>   -0.1332    0.0000 </r>
       <r>   -0.1332    0.0000 </r>
       <r>    0.1863    0.0000 </r>
       <r>    0.1863    0.0000 </r>
       <r>    0.3917    0.0000 </r>
       <r>    0.4830    0.0000 </r>
       <r>    0.5063    0.0000 </r>
       <r>    0.5176    0.0000 </r>
       <r>    0.5176    0.0000 </r>
       <r>    0.6689    0.0000 </r>
       <r>    0.6739    0.0000 </r>
       <r>    0.6739    0.0000 </r>
       <r>    0.6968    0.0000 </r>
       <r>    0.7147    0.0000 </r>
       <r>    0.7147    0.0000 </r>
       <r>    0.7804    0.0000 </r>
       <r>    0.8134    0.0000 </r>
       <r>    0.8134    0.0000 </r>
       <r>    0.8749    0.0000 </r>
       <r>    0.8749    0.0000 </r>
       <r>    1.0412    0.0000 </r>
       <r>    1.0412    0.0000 </r>
       <r>    1.1260    0.0000 </r>
       <r>    1.1260    0.0000 </r>
       <r>    1.2453    0.0000 </r>
       <r>    1.2459    0.0000 </r>
       <r>    1.2614    0.0000 </r>
       <r>    1.2732    0.0000 </r>
       <r>    1.3003    0.0000 </r>
       <r>    1.3003    0.0000 </r>
       <r>    1.3058    0.0000 </r>
       <r>    1.3058    0.0000 </r>
       <r>    1.3180    0.0000 </r>
       <r>    1.4449    0.0000 </r>
       <r>    1.4489    0.0000 </r>
       <r>    1.4869    0.0000 </r>
       <r>    1.4963    0.0000 </r>
      </set>
      <set comment="kpoint 3">
       <r>  -25.8255    1.0000 </r>
       <r>  -25.8255    1.0000 </r>
       <r>  -25.8248    1.0000 </r>
       <r>  -25.8247    1.0000 </r>
       <r>  -25.8244    1.0000 </r>
       <r>  -25.8241    1.0000 </r>
       <r>  -25.8241    1.0000 </r>
       <r>  -25.8238    1.0000 </r>
       <r>  -25.8237    1.0000 </r>
       <r>  -25.8236    1.0000 </r>
       <r>  -25.8234    1.0000 </r>
       <r>  -25.8234    1.0000 </r>
       <r>  -25.8233    1.0000 </r>
       <r>  -25.8230    1.0000 </r>
       <r>  -25.8228    1.0000 </r>
       <r>  -25.8225    1.0000 </r>
       <r>  -25.8223    1.0000 </r>
       <r>  -25.8218    1.0000 </r>
       <r>  -25.8213    1.0000 </r>
       <r>  -25.8211    1.0000 </r>
       <r>  -25.8210    1.0000 </r>
       <r>  -25.8209    1.0000 </r>
       <r>  -25.8198    1.0000 </r>
       <r>  -25.8198    1.0000 </r>
       <r>  -25.7953    1.0000 </r>
       <r>  -25.7953    1.0000 </r>
       <r>  -25.7951    1.0000 </r>
       <r>  -25.7950    1.0000 </r>
       <r>  -25.7950    1.0000 </r>
       <r>  -25.7950    1.0000 </r>
       <r>  -25.7949    1.0000 </r>
       <r>  -25.7949    1.0000 </r>
       <r>  -25.7948    1.0000 </r>
       <r>  -25.7948    1.0000 </r>
       <r>  -25.7946    1.0000 </r>
       <r>  -25.7946    1.0000 </r>
       <r>  -25.7941    1.0000 </r>
       <r>  -25.7941    1.0000 </r>
       <r>  -25.7940    1.0000 </r>
       <r>  -25.7940    1.0000 </r>
       <r>  -25.7940    1.0000 </r>
       <r>  -25.7940    1.0000 </r>
       <r>  -25.7939    1.0000 </r>
       <r>  -25.7939    1.0000 </r>
       <r>  -25.7938    1.0000 </r>
       <r>  -25.7938    1.0000 </r>
       <r>  -25.7937    1.0000 </r>
       <r>  -25.7937    1.0000 </r>
       <r>  -22.8733    1.0000 </r>
       <r>  -22.8729    1.0000 </r>
       <r>  -22.8718    1.0000 </r>
       <r>  -22.8718    1.0000 </r>
       <r>  -22.8708    1.0000 </r>
       <r>  -22.8706    1.0000 </r>
       <r>  -22.8703    1.0000 </r>
       <r>  -22.8701    1.0000 </r>
       <r>  -22.8700    1.0000 </r>
       <r>  -22.8699    1.0000 </r>
       <r>  -22.8694    1.0000 </r>
       <r>  -22.8693    1.0000 </r>
       <r>  -22.8691    1.0000 </r>
       <r>  -22.8691    1.0000 </r>
       <r>  -22.8689    1.0000 </r>
       <r>  -22.8687    1.0000 </r>
       <r>  -22.8674    1.0000 </r>
       <r>  -22.8670    1.0000 </r>
       <r>  -22.8658    1.0000 </r>
       <r>  -22.8653    1.0000 </r>
       <r>  -22.8649    1.0000 </r>
       <r>  -22.8649    1.0000 </r>
       <r>  -22.8619    1.0000 </r>
       <r>  -22.8618    1.0000 </r>
       <r>  -22.8515    1.0000 </r>
       <r>  -22.8515    1.0000 </r>
       <r>  -22.8493    1.0000 </r>
       <r>  -22.8492    1.0000 </r>
       <r>  -22.8491    1.0000 </r>
       <r>  -22.8487    1.0000 </r>
       <r>  -22.8478    1.0000 </r>
       <r>  -22.8475    1.0000 </r>
       <r>  -22.8466    1.0000 </r>
       <r>  -22.8465    1.0000 </r>
       <r>  -22.8461    1.0000 </r>
       <r>  -22.8461    1.0000 </r>
       <r>  -22.8461    1.0000 </r>
       <r>  -22.8460    1.0000 </r>
       <r>  -22.8459    1.0000 </r>
       <r>  -22.8458    1.0000 </r>
       <r>  -22.8458    1.0000 </r>
       <r>  -22.8457    1.0000 </r>
       <r>  -22.8455    1.0000 </r>
       <r>  -22.8454    1.0000 </r>
       <r>  -22.8450    1.0000 </r>
       <r>  -22.8450    1.0000 </r>
       <r>  -22.8440    1.0000 </r>
       <r>  -22.8439    1.0000 </r>
       <r>  -22.8280    1.0000 </r>
       <r>  -22.8271    1.0000 </r>
       <r>  -22.8270    1.0000 </r>
       <r>  -22.8269    1.0000 </r>
       <r>  -22.8259    1.0000 </r>
       <r>  -22.8258    1.0000 </r>
       <r>  -22.8258    1.0000 </r>
       <r>  -22.8250    1.0000 </r>
       <r>  -22.8248    1.0000 </r>
       <r>  -22.8244    1.0000 </r>
       <r>  -22.8241    1.0000 </r>
       <r>  -22.8240    1.0000 </r>
       <r>  -22.8237    1.0000 </r>
       <r>  -22.8234    1.0000 </r>
       <r>  -22.8233    1.0000 </r>
       <r>  -22.8233    1.0000 </r>
       <r>  -22.8233    1.0000 </r>
       <r>  -22.8232    1.0000 </r>
       <r>  -22.8230    1.0000 </r>
       <r>  -22.8230    1.0000 </r>
       <r>  -22.8229    1.0000 </r>
       <r>  -22.8228    1.0000 </r>
       <r>  -22.8227    1.0000 </r>
       <r>  -22.8227    1.0000 </r>
       <r>  -13.4059    1.0000 </r>
       <r>  -13.4019    1.0000 </r>
       <r>  -13.1660    1.0000 </r>
       <r>  -13.1595    1.0000 </r>
       <r>  -13.1383    1.0000 </r>
       <r>  -13.1317    1.0000 </r>
       <r>  -12.9119    1.0000 </r>
       <r>  -12.9044    1.0000 </r>
       <r>  -12.6530    1.0000 </r>
       <r>  -12.6455    1.0000 </r>
       <r>  -12.4565    1.0000 </r>
       <r>  -12.4493    1.0000 </r>
       <r>  -12.3481    1.0000 </r>
       <r>  -12.3415    1.0000 </r>
       <r>  -12.2255    1.0000 </r>
       <r>  -12.2212    1.0000 </r>
       <r>  -12.1462    1.0000 </r>
       <r>  -12.1415    1.0000 </r>
       <r>  -12.0638    1.0000 </r>
       <r>  -12.0605    1.0000 </r>
       <r>  -11.9904    1.0000 </r>
       <r>  -11.9825    1.0000 </r>
       <r>  -11.9691    1.0000 </r>
       <r>  -11.9609    1.0000 </r>
       <r>  -10.0689    1.0000 </r>
       <r>  -10.0495    1.0000 </r>
       <r>  -10.0175    1.0000 </r>
       <r>  -10.0054    1.0000 </r>
       <r>   -9.9877    1.0000 </r>
       <r>   -9.9856    1.0000 </r>
       <r>   -9.9342    1.0000 </r>
       <r>   -9.8969    1.0000 </r>
       <r>   -9.8641    1.0000 </r>
       <r>   -9.8433    1.0000 </r>
       <r>   -9.7149    1.0000 </r>
       <r>   -9.6658    1.0000 </r>
       <r>   -9.6127    1.0000 </r>
       <r>   -9.5605    1.0000 </r>
       <r>   -9.4548    1.0000 </r>
       <r>   -9.4084    1.0000 </r>
       <r>   -9.2521    1.0000 </r>
       <r>   -9.2055    1.0000 </r>
       <r>   -9.1105    1.0000 </r>
       <r>   -9.0951    1.0000 </r>
       <r>   -9.0674    1.0000 </r>
       <r>   -9.0535    1.0000 </r>
       <r>   -8.9947    1.0000 </r>
       <r>   -8.9689    1.0000 </r>
       <r>   -5.1804    1.0000 </r>
       <r>   -5.1713    1.0000 </r>
       <r>   -5.0110    1.0000 </r>
       <r>   -5.0003    1.0000 </r>
       <r>   -4.9902    1.0000 </r>
       <r>   -4.9347    1.0000 </r>
       <r>   -4.8555    1.0000 </r>
       <r>   -4.8459    1.0000 </r>
       <r>   -4.8063    1.0000 </r>
       <r>   -4.7848    1.0000 </r>
       <r>   -4.7545    1.0000 </r>
       <r>   -4.7343    1.0000 </r>
       <r>   -4.7170    1.0000 </r>
       <r>   -4.6606    1.0000 </r>
       <r>   -4.5697    1.0000 </r>
       <r>   -4.4533    1.0000 </r>
       <r>   -4.3885    1.0000 </r>
       <r>   -4.3396    1.0000 </r>
       <r>   -4.3192    1.0000 </r>
       <r>   -4.2744    1.0000 </r>
       <r>   -4.2627    1.0000 </r>
       <r>   -4.2497    1.0000 </r>
       <r>   -4.2336    1.0000 </r>
       <r>   -4.1570    1.0000 </r>
       <r>   -4.0196    1.0000 </r>
       <r>   -3.9957    1.0000 </r>
       <r>   -3.9458    1.0000 </r>
       <r>   -3.9424    1.0000 </r>
       <r>   -3.9244    1.0000 </r>
       <r>   -3.8925    1.0000 </r>
       <r>   -3.8234    1.0000 </r>
       <r>   -3.8155    1.0000 </r>
       <r>   -3.8094    1.0000 </r>
       <r>   -3.7781    1.0000 </r>
       <r>   -3.7536    1.0000 </r>
       <r>   -3.7226    1.0000 </r>
       <r>   -3.5714    1.0000 </r>
       <r>   -3.5433    1.0000 </r>
       <r>   -3.5046    1.0000 </r>
       <r>   -3.4518    1.0000 </r>
       <r>   -3.3153    1.0000 </r>
       <r>   -3.2936    1.0000 </r>
       <r>   -3.2618    1.0000 </r>
       <r>   -3.2487    1.0000 </r>
       <r>   -3.1420    1.0000 </r>
       <r>   -3.1112    1.0000 </r>
       <r>   -3.1030    1.0000 </r>
       <r>   -3.0895    1.0000 </r>
       <r>   -3.0823    1.0000 </r>
       <r>   -3.0715    1.0000 </r>
       <r>   -3.0615    1.0000 </r>
       <r>   -3.0026    1.0000 </r>
       <r>   -2.8974    1.0000 </r>
       <r>   -2.8963    1.0000 </r>
       <r>   -2.8660    1.0000 </r>
       <r>   -2.8119    1.0000 </r>
       <r>   -2.8010    1.0000 </r>
       <r>   -2.7330    1.0000 </r>
       <r>   -2.7154    1.0000 </r>
       <r>   -2.6263    1.0000 </r>
       <r>   -2.6217    1.0000 </r>
       <r>   -2.4922    1.0000 </r>
       <r>   -2.4798    1.0000 </r>
       <r>   -2.4192    1.0000 </r>
       <r>   -2.4079    1.0000 </r>
       <r>   -2.3080    1.0000 </r>
       <r>   -2.2831    1.0000 </r>
       <r>   -2.2030    1.0000 </r>
       <r>   -2.1849    1.0000 </r>
       <r>   -2.1247    1.0000 </r>
       <r>   -1.8866    1.0000 </r>
       <r>   -1.8478    1.0000 </r>
       <r>   -0.5883    0.0000 </r>
       <r>   -0.5506    0.0000 </r>
       <r>   -0.5489    0.0000 </r>
       <r>   -0.4165    0.0000 </r>
       <r>   -0.3794    0.0000 </r>
       <r>   -0.3563    0.0000 </r>
       <r>   -0.3486    0.0000 </r>
       <r>   -0.3387    0.0000 </r>
       <r>   -0.3202    0.0000 </r>
       <r>   -0.2720    0.0000 </r>
       <r>   -0.2705    0.0000 </r>
       <r>   -0.2450    0.0000 </r>
       <r>   -0.2174    0.0000 </r>
       <r>   -0.2088    0.0000 </r>
       <r>   -0.1466    0.0000 </r>
       <r>   -0.1089    0.0000 </r>
       <r>    0.0225    0.0000 </r>
       <r>    0.0228    0.0000 </r>
       <r>    0.0651    0.0000 </r>
       <r>    0.0685    0.0000 </r>
       <r>    0.0712    0.0000 </r>
       <r>    0.1406    0.0000 </r>
       <r>    0.1871    0.0000 </r>
       <r>    0.2815    0.0000 </r>
       <r>    0.3629    0.0000 </r>
       <r>    0.3955    0.0000 </r>
       <r>    0.4196    0.0000 </r>
       <r>    0.4237    0.0000 </r>
       <r>    0.4441    0.0000 </r>
       <r>    0.4984    0.0000 </r>
       <r>    0.5106    0.0000 </r>
       <r>    0.5717    0.0000 </r>
       <r>    0.6126    0.0000 </r>
       <r>    0.6179    0.0000 </r>
       <r>    0.6796    0.0000 </r>
       <r>    0.6797    0.0000 </r>
       <r>    0.6883    0.0000 </r>
       <r>    0.7295    0.0000 </r>
       <r>    0.7554    0.0000 </r>
       <r>    0.7623    0.0000 </r>
       <r>    0.7848    0.0000 </r>
       <r>    0.7999    0.0000 </r>
       <r>    0.9063    0.0000 </r>
       <r>    1.0262    0.0000 </r>
       <r>    1.0348    0.0000 </r>
       <r>    1.0541    0.0000 </r>
       <r>    1.1666    0.0000 </r>
       <r>    1.1765    0.0000 </r>
       <r>    1.2139    0.0000 </r>
       <r>    1.2280    0.0000 </r>
       <r>    1.2596    0.0000 </r>
       <r>    1.3340    0.0000 </r>
       <r>    1.3579    0.0000 </r>
       <r>    1.3938    0.0000 </r>
       <r>    1.4029    0.0000 </r>
       <r>    1.4269    0.0000 </r>
       <r>    1.4361    0.0000 </r>
      </set>
      <set comment="kpoint 4">
       <r>  -25.8255    1.0000 </r>
       <r>  -25.8255    1.0000 </r>
       <r>  -25.8248    1.0000 </r>
       <r>  -25.8247    1.0000 </r>
       <r>  -25.8244    1.0000 </r>
       <r>  -25.8241    1.0000 </r>
       <r>  -25.8241    1.0000 </r>
       <r>  -25.8238    1.0000 </r>
       <r>  -25.8237    1.0000 </r>
       <r>  -25.8236    1.0000 </r>
       <r>  -25.8234    1.0000 </r>
       <r>  -25.8234    1.0000 </r>
       <r>  -25.8233    1.0000 </r>
       <r>  -25.8230    1.0000 </r>
       <r>  -25.8228    1.0000 </r>
       <r>  -25.8225    1.0000 </r>
       <r>  -25.8223    1.0000 </r>
       <r>  -25.8218    1.0000 </r>
       <r>  -25.8213    1.0000 </r>
       <r>  -25.8211    1.0000 </r>
       <r>  -25.8210    1.0000 </r>
       <r>  -25.8209    1.0000 </r>
       <r>  -25.8198    1.0000 </r>
       <r>  -25.8198    1.0000 </r>
       <r>  -25.7953    1.0000 </r>
       <r>  -25.7953    1.0000 </r>
       <r>  -25.7951    1.0000 </r>
       <r>  -25.7950    1.0000 </r>
       <r>  -25.7950    1.0000 </r>
       <r>  -25.7950    1.0000 </r>
       <r>  -25.7949    1.0000 </r>
       <r>  -25.7949    1.0000 </r>
       <r>  -25.7948    1.0000 </r>
       <r>  -25.7948    1.0000 </r>
       <r>  -25.7946    1.0000 </r>
       <r>  -25.7946    1.0000 </r>
       <r>  -25.7941    1.0000 </r>
       <r>  -25.7941    1.0000 </r>
       <r>  -25.7940    1.0000 </r>
       <r>  -25.7940    1.0000 </r>
       <r>  -25.7940    1.0000 </r>
       <r>  -25.7940    1.0000 </r>
       <r>  -25.7939    1.0000 </r>
       <r>  -25.7939    1.0000 </r>
       <r>  -25.7938    1.0000 </r>
       <r>  -25.7938    1.0000 </r>
       <r>  -25.7937    1.0000 </r>
       <r>  -25.7937    1.0000 </r>
       <r>  -22.8733    1.0000 </r>
       <r>  -22.8729    1.0000 </r>
       <r>  -22.8718    1.0000 </r>
       <r>  -22.8718    1.0000 </r>
       <r>  -22.8708    1.0000 </r>
       <r>  -22.8706    1.0000 </r>
       <r>  -22.8703    1.0000 </r>
       <r>  -22.8701    1.0000 </r>
       <r>  -22.8700    1.0000 </r>
       <r>  -22.8699    1.0000 </r>
       <r>  -22.8694    1.0000 </r>
       <r>  -22.8693    1.0000 </r>
       <r>  -22.8691    1.0000 </r>
       <r>  -22.8691    1.0000 </r>
       <r>  -22.8689    1.0000 </r>
       <r>  -22.8687    1.0000 </r>
       <r>  -22.8674    1.0000 </r>
       <r>  -22.8670    1.0000 </r>
       <r>  -22.8658    1.0000 </r>
       <r>  -22.8653    1.0000 </r>
       <r>  -22.8649    1.0000 </r>
       <r>  -22.8649    1.0000 </r>
       <r>  -22.8619    1.0000 </r>
       <r>  -22.8618    1.0000 </r>
       <r>  -22.8515    1.0000 </r>
       <r>  -22.8515    1.0000 </r>
       <r>  -22.8493    1.0000 </r>
       <r>  -22.8492    1.0000 </r>
       <r>  -22.8491    1.0000 </r>
       <r>  -22.8487    1.0000 </r>
       <r>  -22.8478    1.0000 </r>
       <r>  -22.8475    1.0000 </r>
       <r>  -22.8466    1.0000 </r>
       <r>  -22.8465    1.0000 </r>
       <r>  -22.8461    1.0000 </r>
       <r>  -22.8461    1.0000 </r>
       <r>  -22.8461    1.0000 </r>
       <r>  -22.8460    1.0000 </r>
       <r>  -22.8459    1.0000 </r>
       <r>  -22.8458    1.0000 </r>
       <r>  -22.8458    1.0000 </r>
       <r>  -22.8457    1.0000 </r>
       <r>  -22.8455    1.0000 </r>
       <r>  -22.8454    1.0000 </r>
       <r>  -22.8450    1.0000 </r>
       <r>  -22.8450    1.0000 </r>
       <r>  -22.8440    1.0000 </r>
       <r>  -22.8439    1.0000 </r>
       <r>  -22.8280    1.0000 </r>
       <r>  -22.8271    1.0000 </r>
       <r>  -22.8270    1.0000 </r>
       <r>  -22.8269    1.0000 </r>
       <r>  -22.8259    1.0000 </r>
       <r>  -22.8258    1.0000 </r>
       <r>  -22.8258    1.0000 </r>
       <r>  -22.8250    1.0000 </r>
       <r>  -22.8248    1.0000 </r>
       <r>  -22.8244    1.0000 </r>
       <r>  -22.8241    1.0000 </r>
       <r>  -22.8240    1.0000 </r>
       <r>  -22.8237    1.0000 </r>
       <r>  -22.8234    1.0000 </r>
       <r>  -22.8233    1.0000 </r>
       <r>  -22.8233    1.0000 </r>
       <r>  -22.8233    1.0000 </r>
       <r>  -22.8232    1.0000 </r>
       <r>  -22.8230    1.0000 </r>
       <r>  -22.8230    1.0000 </r>
       <r>  -22.8229    1.0000 </r>
       <r>  -22.8228    1.0000 </r>
       <r>  -22.8227    1.0000 </r>
       <r>  -22.8227    1.0000 </r>
       <r>  -13.4059    1.0000 </r>
       <r>  -13.4019    1.0000 </r>
       <r>  -13.1660    1.0000 </r>
       <r>  -13.1595    1.0000 </r>
       <r>  -13.1383    1.0000 </r>
       <r>  -13.1317    1.0000 </r>
       <r>  -12.9119    1.0000 </r>
       <r>  -12.9044    1.0000 </r>
       <r>  -12.6530    1.0000 </r>
       <r>  -12.6455    1.0000 </r>
       <r>  -12.4565    1.0000 </r>
       <r>  -12.4493    1.0000 </r>
       <r>  -12.3481    1.0000 </r>
       <r>  -12.3415    1.0000 </r>
       <r>  -12.2255    1.0000 </r>
       <r>  -12.2212    1.0000 </r>
       <r>  -12.1462    1.0000 </r>
       <r>  -12.1415    1.0000 </r>
       <r>  -12.0638    1.0000 </r>
       <r>  -12.0605    1.0000 </r>
       <r>  -11.9904    1.0000 </r>
       <r>  -11.9825    1.0000 </r>
       <r>  -11.9691    1.0000 </r>
       <r>  -11.9609    1.0000 </r>
       <r>  -10.0689    1.0000 </r>
       <r>  -10.0495    1.0000 </r>
       <r>  -10.0175    1.0000 </r>
       <r>  -10.0054    1.0000 </r>
       <r>   -9.9877    1.0000 </r>
       <r>   -9.9856    1.0000 </r>
       <r>   -9.9342    1.0000 </r>
       <r>   -9.8969    1.0000 </r>
       <r>   -9.8641    1.0000 </r>
       <r>   -9.8433    1.0000 </r>
       <r>   -9.7149    1.0000 </r>
       <r>   -9.6658    1.0000 </r>
       <r>   -9.6127    1.0000 </r>
       <r>   -9.5605    1.0000 </r>
       <r>   -9.4548    1.0000 </r>
       <r>   -9.4084    1.0000 </r>
       <r>   -9.2521    1.0000 </r>
       <r>   -9.2055    1.0000 </r>
       <r>   -9.1105    1.0000 </r>
       <r>   -9.0951    1.0000 </r>
       <r>   -9.0674    1.0000 </r>
       <r>   -9.0535    1.0000 </r>
       <r>   -8.9947    1.0000 </r>
       <r>   -8.9689    1.0000 </r>
       <r>   -5.1804    1.0000 </r>
       <r>   -5.1713    1.0000 </r>
       <r>   -5.0110    1.0000 </r>
       <r>   -5.0003    1.0000 </r>
       <r>   -4.9902    1.0000 </r>
       <r>   -4.9347    1.0000 </r>
       <r>   -4.8555    1.0000 </r>
       <r>   -4.8459    1.0000 </r>
       <r>   -4.8063    1.0000 </r>
       <r>   -4.7848    1.0000 </r>
       <r>   -4.7545    1.0000 </r>
       <r>   -4.7343    1.0000 </r>
       <r>   -4.7170    1.0000 </r>
       <r>   -4.6606    1.0000 </r>
       <r>   -4.5697    1.0000 </r>
       <r>   -4.4533    1.0000 </r>
       <r>   -4.3885    1.0000 </r>
       <r>   -4.3396    1.0000 </r>
       <r>   -4.3192    1.0000 </r>
       <r>   -4.2744    1.0000 </r>
       <r>   -4.2627    1.0000 </r>
       <r>   -4.2497    1.0000 </r>
       <r>   -4.2336    1.0000 </r>
       <r>   -4.1570    1.0000 </r>
       <r>   -4.0196    1.0000 </r>
       <r>   -3.9957    1.0000 </r>
       <r>   -3.9458    1.0000 </r>
       <r>   -3.9424    1.0000 </r>
       <r>   -3.9244    1.0000 </r>
       <r>   -3.8925    1.0000 </r>
       <r>   -3.8234    1.0000 </r>
       <r>   -3.8155    1.0000 </r>
       <r>   -3.8094    1.0000 </r>
       <r>   -3.7781    1.0000 </r>
       <r>   -3.7536    1.0000 </r>
       <r>   -3.7226    1.0000 </r>
       <r>   -3.5714    1.0000 </r>
       <r>   -3.5433    1.0000 </r>
       <r>   -3.5046    1.0000 </r>
       <r>   -3.4518    1.0000 </r>
       <r>   -3.3153    1.0000 </r>
       <r>   -3.2936    1.0000 </r>
       <r>   -3.2618    1.0000 </r>
       <r>   -3.2487    1.0000 </r>
       <r>   -3.1420    1.0000 </r>
       <r>   -3.1112    1.0000 </r>
       <r>   -3.1030    1.0000 </r>
       <r>   -3.0895    1.0000 </r>
       <r>   -3.0823    1.0000 </r>
       <r>   -3.0715    1.0000 </r>
       <r>   -3.0615    1.0000 </r>
       <r>   -3.0026    1.0000 </r>
       <r>   -2.8974    1.0000 </r>
       <r>   -2.8963    1.0000 </r>
       <r>   -2.8660    1.0000 </r>
       <r>   -2.8119    1.0000 </r>
       <r>   -2.8010    1.0000 </r>
       <r>   -2.7330    1.0000 </r>
       <r>   -2.7154    1.0000 </r>
       <r>   -2.6263    1.0000 </r>
       <r>   -2.6217    1.0000 </r>
       <r>   -2.4922    1.0000 </r>
       <r>   -2.4798    1.0000 </r>
       <r>   -2.4192    1.0000 </r>
       <r>   -2.4079    1.0000 </r>
       <r>   -2.3080    1.0000 </r>
       <r>   -2.2831    1.0000 </r>
       <r>   -2.2030    1.0000 </r>
       <r>   -2.1849    1.0000 </r>
       <r>   -2.1247    1.0000 </r>
       <r>   -1.8866    1.0000 </r>
       <r>   -1.8478    1.0000 </r>
       <r>   -0.5883    0.0000 </r>
       <r>   -0.5506    0.0000 </r>
       <r>   -0.5489    0.0000 </r>
       <r>   -0.4165    0.0000 </r>
       <r>   -0.3794    0.0000 </r>
       <r>   -0.3563    0.0000 </r>
       <r>   -0.3486    0.0000 </r>
       <r>   -0.3387    0.0000 </r>
       <r>   -0.3202    0.0000 </r>
       <r>   -0.2720    0.0000 </r>
       <r>   -0.2705    0.0000 </r>
       <r>   -0.2450    0.0000 </r>
       <r>   -0.2174    0.0000 </r>
       <r>   -0.2088    0.0000 </r>
       <r>   -0.1466    0.0000 </r>
       <r>   -0.1089    0.0000 </r>
       <r>    0.0225    0.0000 </r>
       <r>    0.0228    0.0000 </r>
       <r>    0.0651    0.0000 </r>
       <r>    0.0685    0.0000 </r>
       <r>    0.0712    0.0000 </r>
       <r>    0.1406    0.0000 </r>
       <r>    0.1871    0.0000 </r>
       <r>    0.2815    0.0000 </r>
       <r>    0.3629    0.0000 </r>
       <r>    0.3955    0.0000 </r>
       <r>    0.4196    0.0000 </r>
       <r>    0.4237    0.0000 </r>
       <r>    0.4441    0.0000 </r>
       <r>    0.4984    0.0000 </r>
       <r>    0.5106    0.0000 </r>
       <r>    0.5717    0.0000 </r>
       <r>    0.6126    0.0000 </r>
       <r>    0.6179    0.0000 </r>
       <r>    0.6796    0.0000 </r>
       <r>    0.6797    0.0000 </r>
       <r>    0.6883    0.0000 </r>
       <r>    0.7295    0.0000 </r>
       <r>    0.7554    0.0000 </r>
       <r>    0.7623    0.0000 </r>
       <r>    0.7848    0.0000 </r>
       <r>    0.7999    0.0000 </r>
       <r>    0.9063    0.0000 </r>
       <r>    1.0262    0.0000 </r>
       <r>    1.0348    0.0000 </r>
       <r>    1.0541    0.0000 </r>
       <r>    1.1666    0.0000 </r>
       <r>    1.1765    0.0000 </r>
       <r>    1.2139    0.0000 </r>
       <r>    1.2280    0.0000 </r>
       <r>    1.2596    0.0000 </r>
       <r>    1.3340    0.0000 </r>
       <r>    1.3568    0.0000 </r>
       <r>    1.3931    0.0000 </r>
       <r>    1.4024    0.0000 </r>
       <r>    1.4188    0.0000 </r>
       <r>    1.4301    0.0000 </r>
      </set>
      <set comment="kpoint 5">
       <r>  -25.8255    1.0000 </r>
       <r>  -25.8255    1.0000 </r>
       <r>  -25.8248    1.0000 </r>
       <r>  -25.8247    1.0000 </r>
       <r>  -25.8244    1.0000 </r>
       <r>  -25.8241    1.0000 </r>
       <r>  -25.8241    1.0000 </r>
       <r>  -25.8238    1.0000 </r>
       <r>  -25.8237    1.0000 </r>
       <r>  -25.8236    1.0000 </r>
       <r>  -25.8234    1.0000 </r>
       <r>  -25.8234    1.0000 </r>
       <r>  -25.8233    1.0000 </r>
       <r>  -25.8230    1.0000 </r>
       <r>  -25.8228    1.0000 </r>
       <r>  -25.8225    1.0000 </r>
       <r>  -25.8223    1.0000 </r>
       <r>  -25.8218    1.0000 </r>
       <r>  -25.8213    1.0000 </r>
       <r>  -25.8211    1.0000 </r>
       <r>  -25.8210    1.0000 </r>
       <r>  -25.8209    1.0000 </r>
       <r>  -25.8198    1.0000 </r>
       <r>  -25.8198    1.0000 </r>
       <r>  -25.7953    1.0000 </r>
       <r>  -25.7953    1.0000 </r>
       <r>  -25.7951    1.0000 </r>
       <r>  -25.7950    1.0000 </r>
       <r>  -25.7950    1.0000 </r>
       <r>  -25.7950    1.0000 </r>
       <r>  -25.7949    1.0000 </r>
       <r>  -25.7949    1.0000 </r>
       <r>  -25.7948    1.0000 </r>
       <r>  -25.7948    1.0000 </r>
       <r>  -25.7946    1.0000 </r>
       <r>  -25.7946    1.0000 </r>
       <r>  -25.7941    1.0000 </r>
       <r>  -25.7941    1.0000 </r>
       <r>  -25.7940    1.0000 </r>
       <r>  -25.7940    1.0000 </r>
       <r>  -25.7940    1.0000 </r>
       <r>  -25.7940    1.0000 </r>
       <r>  -25.7939    1.0000 </r>
       <r>  -25.7939    1.0000 </r>
       <r>  -25.7938    1.0000 </r>
       <r>  -25.7938    1.0000 </r>
       <r>  -25.7937    1.0000 </r>
       <r>  -25.7937    1.0000 </r>
       <r>  -22.8733    1.0000 </r>
       <r>  -22.8729    1.0000 </r>
       <r>  -22.8718    1.0000 </r>
       <r>  -22.8718    1.0000 </r>
       <r>  -22.8708    1.0000 </r>
       <r>  -22.8706    1.0000 </r>
       <r>  -22.8703    1.0000 </r>
       <r>  -22.8701    1.0000 </r>
       <r>  -22.8700    1.0000 </r>
       <r>  -22.8699    1.0000 </r>
       <r>  -22.8694    1.0000 </r>
       <r>  -22.8693    1.0000 </r>
       <r>  -22.8691    1.0000 </r>
       <r>  -22.8691    1.0000 </r>
       <r>  -22.8689    1.0000 </r>
       <r>  -22.8687    1.0000 </r>
       <r>  -22.8674    1.0000 </r>
       <r>  -22.8670    1.0000 </r>
       <r>  -22.8658    1.0000 </r>
       <r>  -22.8653    1.0000 </r>
       <r>  -22.8649    1.0000 </r>
       <r>  -22.8649    1.0000 </r>
       <r>  -22.8619    1.0000 </r>
       <r>  -22.8618    1.0000 </r>
       <r>  -22.8515    1.0000 </r>
       <r>  -22.8515    1.0000 </r>
       <r>  -22.8493    1.0000 </r>
       <r>  -22.8492    1.0000 </r>
       <r>  -22.8491    1.0000 </r>
       <r>  -22.8487    1.0000 </r>
       <r>  -22.8478    1.0000 </r>
       <r>  -22.8475    1.0000 </r>
       <r>  -22.8466    1.0000 </r>
       <r>  -22.8465    1.0000 </r>
       <r>  -22.8461    1.0000 </r>
       <r>  -22.8461    1.0000 </r>
       <r>  -22.8461    1.0000 </r>
       <r>  -22.8460    1.0000 </r>
       <r>  -22.8459    1.0000 </r>
       <r>  -22.8458    1.0000 </r>
       <r>  -22.8458    1.0000 </r>
       <r>  -22.8457    1.0000 </r>
       <r>  -22.8455    1.0000 </r>
       <r>  -22.8454    1.0000 </r>
       <r>  -22.8450    1.0000 </r>
       <r>  -22.8450    1.0000 </r>
       <r>  -22.8440    1.0000 </r>
       <r>  -22.8439    1.0000 </r>
       <r>  -22.8280    1.0000 </r>
       <r>  -22.8271    1.0000 </r>
       <r>  -22.8270    1.0000 </r>
       <r>  -22.8269    1.0000 </r>
       <r>  -22.8259    1.0000 </r>
       <r>  -22.8258    1.0000 </r>
       <r>  -22.8258    1.0000 </r>
       <r>  -22.8250    1.0000 </r>
       <r>  -22.8248    1.0000 </r>
       <r>  -22.8244    1.0000 </r>
       <r>  -22.8241    1.0000 </r>
       <r>  -22.8240    1.0000 </r>
       <r>  -22.8237    1.0000 </r>
       <r>  -22.8234    1.0000 </r>
       <r>  -22.8233    1.0000 </r>
       <r>  -22.8233    1.0000 </r>
       <r>  -22.8233    1.0000 </r>
       <r>  -22.8232    1.0000 </r>
       <r>  -22.8230    1.0000 </r>
       <r>  -22.8230    1.0000 </r>
       <r>  -22.8229    1.0000 </r>
       <r>  -22.8228    1.0000 </r>
       <r>  -22.8227    1.0000 </r>
       <r>  -22.8227    1.0000 </r>
       <r>  -13.4059    1.0000 </r>
       <r>  -13.4019    1.0000 </r>
       <r>  -13.1660    1.0000 </r>
       <r>  -13.1595    1.0000 </r>
       <r>  -13.1383    1.0000 </r>
       <r>  -13.1317    1.0000 </r>
       <r>  -12.9119    1.0000 </r>
       <r>  -12.9044    1.0000 </r>
       <r>  -12.6530    1.0000 </r>
       <r>  -12.6455    1.0000 </r>
       <r>  -12.4565    1.0000 </r>
       <r>  -12.4493    1.0000 </r>
       <r>  -12.3481    1.0000 </r>
       <r>  -12.3415    1.0000 </r>
       <r>  -12.2255    1.0000 </r>
       <r>  -12.2212    1.0000 </r>
       <r>  -12.1462    1.0000 </r>
       <r>  -12.1415    1.0000 </r>
       <r>  -12.0638    1.0000 </r>
       <r>  -12.0605    1.0000 </r>
       <r>  -11.9904    1.0000 </r>
       <r>  -11.9825    1.0000 </r>
       <r>  -11.9691    1.0000 </r>
       <r>  -11.9609    1.0000 </r>
       <r>  -10.0689    1.0000 </r>
       <r>  -10.0495    1.0000 </r>
       <r>  -10.0175    1.0000 </r>
       <r>  -10.0054    1.0000 </r>
       <r>   -9.9877    1.0000 </r>
       <r>   -9.9856    1.0000 </r>
       <r>   -9.9342    1.0000 </r>
       <r>   -9.8969    1.0000 </r>
       <r>   -9.8641    1.0000 </r>
       <r>   -9.8433    1.0000 </r>
       <r>   -9.7149    1.0000 </r>
       <r>   -9.6658    1.0000 </r>
       <r>   -9.6127    1.0000 </r>
       <r>   -9.5605    1.0000 </r>
       <r>   -9.4548    1.0000 </r>
       <r>   -9.4084    1.0000 </r>
       <r>   -9.2521    1.0000 </r>
       <r>   -9.2055    1.0000 </r>
       <r>   -9.1105    1.0000 </r>
       <r>   -9.0951    1.0000 </r>
       <r>   -9.0674    1.0000 </r>
       <r>   -9.0535    1.0000 </r>
       <r>   -8.9947    1.0000 </r>
       <r>   -8.9689    1.0000 </r>
       <r>   -5.1804    1.0000 </r>
       <r>   -5.1713    1.0000 </r>
       <r>   -5.0110    1.0000 </r>
       <r>   -5.0003    1.0000 </r>
       <r>   -4.9902    1.0000 </r>
       <r>   -4.9347    1.0000 </r>
       <r>   -4.8555    1.0000 </r>
       <r>   -4.8459    1.0000 </r>
       <r>   -4.8063    1.0000 </r>
       <r>   -4.7848    1.0000 </r>
       <r>   -4.7545    1.0000 </r>
       <r>   -4.7343    1.0000 </r>
       <r>   -4.7170    1.0000 </r>
       <r>   -4.6606    1.0000 </r>
       <r>   -4.5697    1.0000 </r>
       <r>   -4.4533    1.0000 </r>
       <r>   -4.3885    1.0000 </r>
       <r>   -4.3396    1.0000 </r>
       <r>   -4.3192    1.0000 </r>
       <r>   -4.2744    1.0000 </r>
       <r>   -4.2627    1.0000 </r>
       <r>   -4.2497    1.0000 </r>
       <r>   -4.2336    1.0000 </r>
       <r>   -4.1570    1.0000 </r>
       <r>   -4.0196    1.0000 </r>
       <r>   -3.9957    1.0000 </r>
       <r>   -3.9458    1.0000 </r>
       <r>   -3.9424    1.0000 </r>
       <r>   -3.9244    1.0000 </r>
       <r>   -3.8925    1.0000 </r>
       <r>   -3.8234    1.0000 </r>
       <r>   -3.8155    1.0000 </r>
       <r>   -3.8094    1.0000 </r>
       <r>   -3.7781    1.0000 </r>
       <r>   -3.7536    1.0000 </r>
       <r>   -3.7226    1.0000 </r>
       <r>   -3.5714    1.0000 </r>
       <r>   -3.5433    1.0000 </r>
       <r>   -3.5046    1.0000 </r>
       <r>   -3.4518    1.0000 </r>
       <r>   -3.3153    1.0000 </r>
       <r>   -3.2936    1.0000 </r>
       <r>   -3.2618    1.0000 </r>
       <r>   -3.2487    1.0000 </r>
       <r>   -3.1420    1.0000 </r>
       <r>   -3.1112    1.0000 </r>
       <r>   -3.1030    1.0000 </r>
       <r>   -3.0895    1.0000 </r>
       <r>   -3.0823    1.0000 </r>
       <r>   -3.0715    1.0000 </r>
       <r>   -3.0615    1.0000 </r>
       <r>   -3.0026    1.0000 </r>
       <r>   -2.8974    1.0000 </r>
       <r>   -2.8963    1.0000 </r>
       <r>   -2.8660    1.0000 </r>
       <r>   -2.8119    1.0000 </r>
       <r>   -2.8010    1.0000 </r>
       <r>   -2.7330    1.0000 </r>
       <r>   -2.7154    1.0000 </r>
       <r>   -2.6263    1.0000 </r>
       <r>   -2.6217    1.0000 </r>
       <r>   -2.4922    1.0000 </r>
       <r>   -2.4798    1.0000 </r>
       <r>   -2.4192    1.0000 </r>
       <r>   -2.4079    1.0000 </r>
       <r>   -2.3080    1.0000 </r>
       <r>   -2.2831    1.0000 </r>
       <r>   -2.2030    1.0000 </r>
       <r>   -2.1849    1.0000 </r>
       <r>   -2.1247    1.0000 </r>
       <r>   -1.8866    1.0000 </r>
       <r>   -1.8478    1.0000 </r>
       <r>   -0.5883    0.0000 </r>
       <r>   -0.5506    0.0000 </r>
       <r>   -0.5489    0.0000 </r>
       <r>   -0.4165    0.0000 </r>
       <r>   -0.3794    0.0000 </r>
       <r>   -0.3563    0.0000 </r>
       <r>   -0.3486    0.0000 </r>
       <r>   -0.3387    0.0000 </r>
       <r>   -0.3202    0.0000 </r>
       <r>   -0.2720    0.0000 </r>
       <r>   -0.2705    0.0000 </r>
       <r>   -0.2450    0.0000 </r>
       <r>   -0.2174    0.0000 </r>
       <r>   -0.2088    0.0000 </r>
       <r>   -0.1466    0.0000 </r>
       <r>   -0.1089    0.0000 </r>
       <r>    0.0225    0.0000 </r>
       <r>    0.0228    0.0000 </r>
       <r>    0.0651    0.0000 </r>
       <r>    0.0685    0.0000 </r>
       <r>    0.0712    0.0000 </r>
       <r>    0.1406    0.0000 </r>
       <r>    0.1871    0.0000 </r>
       <r>    0.2815    0.0000 </r>
       <r>    0.3629    0.0000 </r>
       <r>    0.3955    0.0000 </r>
       <r>    0.4196    0.0000 </r>
       <r>    0.4237    0.0000 </r>
       <r>    0.4441    0.0000 </r>
       <r>    0.4984    0.0000 </r>
       <r>    0.5106    0.0000 </r>
       <r>    0.5717    0.0000 </r>
       <r>    0.6126    0.0000 </r>
       <r>    0.6179    0.0000 </r>
       <r>    0.6796    0.0000 </r>
       <r>    0.6797    0.0000 </r>
       <r>    0.6883    0.0000 </r>
       <r>    0.7295    0.0000 </r>
       <r>    0.7554    0.0000 </r>
       <r>    0.7623    0.0000 </r>
       <r>    0.7848    0.0000 </r>
       <r>    0.7999    0.0000 </r>
       <r>    0.9063    0.0000 </r>
       <r>    1.0262    0.0000 </r>
       <r>    1.0348    0.0000 </r>
       <r>    1.0541    0.0000 </r>
       <r>    1.1666    0.0000 </r>
       <r>    1.1765    0.0000 </r>
       <r>    1.2139    0.0000 </r>
       <r>    1.2280    0.0000 </r>
       <r>    1.2596    0.0000 </r>
       <r>    1.3341    0.0000 </r>
       <r>    1.3596    0.0000 </r>
       <r>    1.3955    0.0000 </r>
       <r>    1.4042    0.0000 </r>
       <r>    1.4189    0.0000 </r>
       <r>    1.4321    0.0000 </r>
      </set>
      <set comment="kpoint 6">
       <r>  -25.8255    1.0000 </r>
       <r>  -25.8255    1.0000 </r>
       <r>  -25.8248    1.0000 </r>
       <r>  -25.8247    1.0000 </r>
       <r>  -25.8244    1.0000 </r>
       <r>  -25.8241    1.0000 </r>
       <r>  -25.8241    1.0000 </r>
       <r>  -25.8238    1.0000 </r>
       <r>  -25.8237    1.0000 </r>
       <r>  -25.8236    1.0000 </r>
       <r>  -25.8234    1.0000 </r>
       <r>  -25.8234    1.0000 </r>
       <r>  -25.8233    1.0000 </r>
       <r>  -25.8230    1.0000 </r>
       <r>  -25.8228    1.0000 </r>
       <r>  -25.8225    1.0000 </r>
       <r>  -25.8223    1.0000 </r>
       <r>  -25.8218    1.0000 </r>
       <r>  -25.8213    1.0000 </r>
       <r>  -25.8211    1.0000 </r>
       <r>  -25.8210    1.0000 </r>
       <r>  -25.8209    1.0000 </r>
       <r>  -25.8198    1.0000 </r>
       <r>  -25.8198    1.0000 </r>
       <r>  -25.7953    1.0000 </r>
       <r>  -25.7953    1.0000 </r>
       <r>  -25.7951    1.0000 </r>
       <r>  -25.7950    1.0000 </r>
       <r>  -25.7950    1.0000 </r>
       <r>  -25.7950    1.0000 </r>
       <r>  -25.7949    1.0000 </r>
       <r>  -25.7949    1.0000 </r>
       <r>  -25.7948    1.0000 </r>
       <r>  -25.7948    1.0000 </r>
       <r>  -25.7946    1.0000 </r>
       <r>  -25.7946    1.0000 </r>
       <r>  -25.7941    1.0000 </r>
       <r>  -25.7941    1.0000 </r>
       <r>  -25.7940    1.0000 </r>
       <r>  -25.7940    1.0000 </r>
       <r>  -25.7940    1.0000 </r>
       <r>  -25.7940    1.0000 </r>
       <r>  -25.7939    1.0000 </r>
       <r>  -25.7939    1.0000 </r>
       <r>  -25.7938    1.0000 </r>
       <r>  -25.7938    1.0000 </r>
       <r>  -25.7937    1.0000 </r>
       <r>  -25.7937    1.0000 </r>
       <r>  -22.8733    1.0000 </r>
       <r>  -22.8729    1.0000 </r>
       <r>  -22.8718    1.0000 </r>
       <r>  -22.8718    1.0000 </r>
       <r>  -22.8708    1.0000 </r>
       <r>  -22.8706    1.0000 </r>
       <r>  -22.8703    1.0000 </r>
       <r>  -22.8701    1.0000 </r>
       <r>  -22.8700    1.0000 </r>
       <r>  -22.8699    1.0000 </r>
       <r>  -22.8694    1.0000 </r>
       <r>  -22.8693    1.0000 </r>
       <r>  -22.8691    1.0000 </r>
       <r>  -22.8691    1.0000 </r>
       <r>  -22.8689    1.0000 </r>
       <r>  -22.8687    1.0000 </r>
       <r>  -22.8674    1.0000 </r>
       <r>  -22.8670    1.0000 </r>
       <r>  -22.8658    1.0000 </r>
       <r>  -22.8653    1.0000 </r>
       <r>  -22.8649    1.0000 </r>
       <r>  -22.8649    1.0000 </r>
       <r>  -22.8619    1.0000 </r>
       <r>  -22.8618    1.0000 </r>
       <r>  -22.8515    1.0000 </r>
       <r>  -22.8515    1.0000 </r>
       <r>  -22.8493    1.0000 </r>
       <r>  -22.8492    1.0000 </r>
       <r>  -22.8491    1.0000 </r>
       <r>  -22.8487    1.0000 </r>
       <r>  -22.8478    1.0000 </r>
       <r>  -22.8475    1.0000 </r>
       <r>  -22.8466    1.0000 </r>
       <r>  -22.8465    1.0000 </r>
       <r>  -22.8461    1.0000 </r>
       <r>  -22.8461    1.0000 </r>
       <r>  -22.8461    1.0000 </r>
       <r>  -22.8460    1.0000 </r>
       <r>  -22.8459    1.0000 </r>
       <r>  -22.8458    1.0000 </r>
       <r>  -22.8458    1.0000 </r>
       <r>  -22.8457    1.0000 </r>
       <r>  -22.8455    1.0000 </r>
       <r>  -22.8454    1.0000 </r>
       <r>  -22.8450    1.0000 </r>
       <r>  -22.8450    1.0000 </r>
       <r>  -22.8440    1.0000 </r>
       <r>  -22.8439    1.0000 </r>
       <r>  -22.8280    1.0000 </r>
       <r>  -22.8271    1.0000 </r>
       <r>  -22.8270    1.0000 </r>
       <r>  -22.8269    1.0000 </r>
       <r>  -22.8259    1.0000 </r>
       <r>  -22.8258    1.0000 </r>
       <r>  -22.8258    1.0000 </r>
       <r>  -22.8250    1.0000 </r>
       <r>  -22.8248    1.0000 </r>
       <r>  -22.8244    1.0000 </r>
       <r>  -22.8241    1.0000 </r>
       <r>  -22.8240    1.0000 </r>
       <r>  -22.8237    1.0000 </r>
       <r>  -22.8234    1.0000 </r>
       <r>  -22.8233    1.0000 </r>
       <r>  -22.8233    1.0000 </r>
       <r>  -22.8233    1.0000 </r>
       <r>  -22.8232    1.0000 </r>
       <r>  -22.8230    1.0000 </r>
       <r>  -22.8230    1.0000 </r>
       <r>  -22.8229    1.0000 </r>
       <r>  -22.8228    1.0000 </r>
       <r>  -22.8227    1.0000 </r>
       <r>  -22.8227    1.0000 </r>
       <r>  -13.4059    1.0000 </r>
       <r>  -13.4019    1.0000 </r>
       <r>  -13.1660    1.0000 </r>
       <r>  -13.1595    1.0000 </r>
       <r>  -13.1383    1.0000 </r>
       <r>  -13.1317    1.0000 </r>
       <r>  -12.9119    1.0000 </r>
       <r>  -12.9044    1.0000 </r>
       <r>  -12.6530    1.0000 </r>
       <r>  -12.6455    1.0000 </r>
       <r>  -12.4565    1.0000 </r>
       <r>  -12.4493    1.0000 </r>
       <r>  -12.3481    1.0000 </r>
       <r>  -12.3415    1.0000 </r>
       <r>  -12.2255    1.0000 </r>
       <r>  -12.2212    1.0000 </r>
       <r>  -12.1462    1.0000 </r>
       <r>  -12.1415    1.0000 </r>
       <r>  -12.0638    1.0000 </r>
       <r>  -12.0605    1.0000 </r>
       <r>  -11.9904    1.0000 </r>
       <r>  -11.9825    1.0000 </r>
       <r>  -11.9691    1.0000 </r>
       <r>  -11.9609    1.0000 </r>
       <r>  -10.0689    1.0000 </r>
       <r>  -10.0495    1.0000 </r>
       <r>  -10.0175    1.0000 </r>
       <r>  -10.0054    1.0000 </r>
       <r>   -9.9877    1.0000 </r>
       <r>   -9.9856    1.0000 </r>
       <r>   -9.9342    1.0000 </r>
       <r>   -9.8969    1.0000 </r>
       <r>   -9.8641    1.0000 </r>
       <r>   -9.8433    1.0000 </r>
       <r>   -9.7149    1.0000 </r>
       <r>   -9.6658    1.0000 </r>
       <r>   -9.6127    1.0000 </r>
       <r>   -9.5605    1.0000 </r>
       <r>   -9.4548    1.0000 </r>
       <r>   -9.4084    1.0000 </r>
       <r>   -9.2521    1.0000 </r>
       <r>   -9.2055    1.0000 </r>
       <r>   -9.1105    1.0000 </r>
       <r>   -9.0951    1.0000 </r>
       <r>   -9.0674    1.0000 </r>
       <r>   -9.0535    1.0000 </r>
       <r>   -8.9947    1.0000 </r>
       <r>   -8.9689    1.0000 </r>
       <r>   -5.1804    1.0000 </r>
       <r>   -5.1713    1.0000 </r>
       <r>   -5.0110    1.0000 </r>
       <r>   -5.0003    1.0000 </r>
       <r>   -4.9902    1.0000 </r>
       <r>   -4.9347    1.0000 </r>
       <r>   -4.8555    1.0000 </r>
       <r>   -4.8459    1.0000 </r>
       <r>   -4.8063    1.0000 </r>
       <r>   -4.7848    1.0000 </r>
       <r>   -4.7545    1.0000 </r>
       <r>   -4.7343    1.0000 </r>
       <r>   -4.7170    1.0000 </r>
       <r>   -4.6606    1.0000 </r>
       <r>   -4.5697    1.0000 </r>
       <r>   -4.4533    1.0000 </r>
       <r>   -4.3885    1.0000 </r>
       <r>   -4.3396    1.0000 </r>
       <r>   -4.3192    1.0000 </r>
       <r>   -4.2744    1.0000 </r>
       <r>   -4.2627    1.0000 </r>
       <r>   -4.2497    1.0000 </r>
       <r>   -4.2336    1.0000 </r>
       <r>   -4.1570    1.0000 </r>
       <r>   -4.0196    1.0000 </r>
       <r>   -3.9957    1.0000 </r>
       <r>   -3.9458    1.0000 </r>
       <r>   -3.9424    1.0000 </r>
       <r>   -3.9244    1.0000 </r>
       <r>   -3.8925    1.0000 </r>
       <r>   -3.8234    1.0000 </r>
       <r>   -3.8155    1.0000 </r>
       <r>   -3.8094    1.0000 </r>
       <r>   -3.7781    1.0000 </r>
       <r>   -3.7536    1.0000 </r>
       <r>   -3.7226    1.0000 </r>
       <r>   -3.5714    1.0000 </r>
       <r>   -3.5433    1.0000 </r>
       <r>   -3.5046    1.0000 </r>
       <r>   -3.4518    1.0000 </r>
       <r>   -3.3153    1.0000 </r>
       <r>   -3.2936    1.0000 </r>
       <r>   -3.2618    1.0000 </r>
       <r>   -3.2487    1.0000 </r>
       <r>   -3.1420    1.0000 </r>
       <r>   -3.1112    1.0000 </r>
       <r>   -3.1030    1.0000 </r>
       <r>   -3.0895    1.0000 </r>
       <r>   -3.0823    1.0000 </r>
       <r>   -3.0715    1.0000 </r>
       <r>   -3.0615    1.0000 </r>
       <r>   -3.0026    1.0000 </r>
       <r>   -2.8974    1.0000 </r>
       <r>   -2.8963    1.0000 </r>
       <r>   -2.8660    1.0000 </r>
       <r>   -2.8119    1.0000 </r>
       <r>   -2.8010    1.0000 </r>
       <r>   -2.7330    1.0000 </r>
       <r>   -2.7154    1.0000 </r>
       <r>   -2.6263    1.0000 </r>
       <r>   -2.6217    1.0000 </r>
       <r>   -2.4922    1.0000 </r>
       <r>   -2.4798    1.0000 </r>
       <r>   -2.4192    1.0000 </r>
       <r>   -2.4079    1.0000 </r>
       <r>   -2.3080    1.0000 </r>
       <r>   -2.2831    1.0000 </r>
       <r>   -2.2030    1.0000 </r>
       <r>   -2.1849    1.0000 </r>
       <r>   -2.1247    1.0000 </r>
       <r>   -1.8866    1.0000 </r>
       <r>   -1.8478    1.0000 </r>
       <r>   -0.5883    0.0000 </r>
       <r>   -0.5506    0.0000 </r>
       <r>   -0.5489    0.0000 </r>
       <r>   -0.4165    0.0000 </r>
       <r>   -0.3794    0.0000 </r>
       <r>   -0.3563    0.0000 </r>
       <r>   -0.3486    0.0000 </r>
       <r>   -0.3387    0.0000 </r>
       <r>   -0.3202    0.0000 </r>
       <r>   -0.2720    0.0000 </r>
       <r>   -0.2705    0.0000 </r>
       <r>   -0.2450    0.0000 </r>
       <r>   -0.2174    0.0000 </r>
       <r>   -0.2088    0.0000 </r>
       <r>   -0.1466    0.0000 </r>
       <r>   -0.1089    0.0000 </r>
       <r>    0.0225    0.0000 </r>
       <r>    0.0228    0.0000 </r>
       <r>    0.0651    0.0000 </r>
       <r>    0.0685    0.0000 </r>
       <r>    0.0712    0.0000 </r>
       <r>    0.1406    0.0000 </r>
       <r>    0.1871    0.0000 </r>
       <r>    0.2815    0.0000 </r>
       <r>    0.3629    0.0000 </r>
       <r>    0.3955    0.0000 </r>
       <r>    0.4196    0.0000 </r>
       <r>    0.4237    0.0000 </r>
       <r>    0.4441    0.0000 </r>
       <r>    0.4984    0.0000 </r>
       <r>    0.5106    0.0000 </r>
       <r>    0.5717    0.0000 </r>
       <r>    0.6126    0.0000 </r>
       <r>    0.6179    0.0000 </r>
       <r>    0.6796    0.0000 </r>
       <r>    0.6797    0.0000 </r>
       <r>    0.6883    0.0000 </r>
       <r>    0.7295    0.0000 </r>
       <r>    0.7554    0.0000 </r>
       <r>    0.7623    0.0000 </r>
       <r>    0.7848    0.0000 </r>
       <r>    0.7999    0.0000 </r>
       <r>    0.9063    0.0000 </r>
       <r>    1.0262    0.0000 </r>
       <r>    1.0348    0.0000 </r>
       <r>    1.0541    0.0000 </r>
       <r>    1.1666    0.0000 </r>
       <r>    1.1765    0.0000 </r>
       <r>    1.2139    0.0000 </r>
       <r>    1.2280    0.0000 </r>
       <r>    1.2596    0.0000 </r>
       <r>    1.3339    0.0000 </r>
       <r>    1.3572    0.0000 </r>
       <r>    1.3927    0.0000 </r>
       <r>    1.4028    0.0000 </r>
       <r>    1.4202    0.0000 </r>
       <r>    1.4315    0.0000 </r>
      </set>
     </set>
    </set>
   </array>
  </eigenvalues>
  <separator name="orbital magnetization" >
   <v name="MAGDIPOLOUT">      0.00000000      0.00000000      0.00000000</v>
  </separator>
  <dos>
   <i name="efermi">     -1.33737965 </i>
   <total>
    <array>
     <dimension dim="1">gridpoints</dimension>
     <dimension dim="2">spin</dimension>
     <field>energy</field>
     <field>total</field>
     <field>integrated</field>
     <set>
      <set comment="spin 1">
       <r>   -27.1921     0.0000     0.0000 </r>
       <r>   -27.0919     0.0000     0.0000 </r>
       <r>   -26.9917     0.0000     0.0000 </r>
       <r>   -26.8915     0.0000     0.0000 </r>
       <r>   -26.7914     0.0000     0.0000 </r>
       <r>   -26.6912     0.0000     0.0000 </r>
       <r>   -26.5910     0.0000     0.0000 </r>
       <r>   -26.4908     0.0000     0.0000 </r>
       <r>   -26.3906     0.0000     0.0000 </r>
       <r>   -26.2904     0.0000     0.0000 </r>
       <r>   -26.1902     0.0000     0.0000 </r>
       <r>   -26.0900     0.0000     0.0000 </r>
       <r>   -25.9899     0.0003     0.0000 </r>
       <r>   -25.8897     7.9649     0.7980 </r>
       <r>   -25.7895   323.4783    33.2066 </r>
       <r>   -25.6893   147.2849    47.9628 </r>
       <r>   -25.5891     0.3716    48.0000 </r>
       <r>   -25.4889     0.0000    48.0000 </r>
       <r>   -25.3887     0.0000    48.0000 </r>
       <r>   -25.2885     0.0000    48.0000 </r>
       <r>   -25.1884     0.0000    48.0000 </r>
       <r>   -25.0882     0.0000    48.0000 </r>
       <r>   -24.9880     0.0000    48.0000 </r>
       <r>   -24.8878     0.0000    48.0000 </r>
       <r>   -24.7876     0.0000    48.0000 </r>
       <r>   -24.6874     0.0000    48.0000 </r>
       <r>   -24.5872     0.0000    48.0000 </r>
       <r>   -24.4870     0.0000    48.0000 </r>
       <r>   -24.3868     0.0000    48.0000 </r>
       <r>   -24.2867     0.0000    48.0000 </r>
       <r>   -24.1865     0.0000    48.0000 </r>
       <r>   -24.0863     0.0000    48.0000 </r>
       <r>   -23.9861     0.0000    48.0000 </r>
       <r>   -23.8859     0.0000    48.0000 </r>
       <r>   -23.7857     0.0000    48.0000 </r>
       <r>   -23.6855     0.0000    48.0000 </r>
       <r>   -23.5853     0.0000    48.0000 </r>
       <r>   -23.4852     0.0000    48.0000 </r>
       <r>   -23.3850     0.0000    48.0000 </r>
       <r>   -23.2848     0.0000    48.0000 </r>
       <r>   -23.1846     0.0000    48.0000 </r>
       <r>   -23.0844     0.0000    48.0000 </r>
       <r>   -22.9842     0.1467    48.0147 </r>
       <r>   -22.8840   125.4196    60.5802 </r>
       <r>   -22.7838   551.9139   115.8753 </r>
       <r>   -22.6837    41.1610   119.9991 </r>
       <r>   -22.5835     0.0088   120.0000 </r>
       <r>   -22.4833     0.0000   120.0000 </r>
       <r>   -22.3831     0.0000   120.0000 </r>
       <r>   -22.2829     0.0000   120.0000 </r>
       <r>   -22.1827     0.0000   120.0000 </r>
       <r>   -22.0825     0.0000   120.0000 </r>
       <r>   -21.9823     0.0000   120.0000 </r>
       <r>   -21.8822     0.0000   120.0000 </r>
       <r>   -21.7820     0.0000   120.0000 </r>
       <r>   -21.6818     0.0000   120.0000 </r>
       <r>   -21.5816     0.0000   120.0000 </r>
       <r>   -21.4814     0.0000   120.0000 </r>
       <r>   -21.3812     0.0000   120.0000 </r>
       <r>   -21.2810     0.0000   120.0000 </r>
       <r>   -21.1808     0.0000   120.0000 </r>
       <r>   -21.0806     0.0000   120.0000 </r>
       <r>   -20.9805     0.0000   120.0000 </r>
       <r>   -20.8803     0.0000   120.0000 </r>
       <r>   -20.7801     0.0000   120.0000 </r>
       <r>   -20.6799     0.0000   120.0000 </r>
       <r>   -20.5797     0.0000   120.0000 </r>
       <r>   -20.4795     0.0000   120.0000 </r>
       <r>   -20.3793     0.0000   120.0000 </r>
       <r>   -20.2791     0.0000   120.0000 </r>
       <r>   -20.1790     0.0000   120.0000 </r>
       <r>   -20.0788     0.0000   120.0000 </r>
       <r>   -19.9786     0.0000   120.0000 </r>
       <r>   -19.8784     0.0000   120.0000 </r>
       <r>   -19.7782     0.0000   120.0000 </r>
       <r>   -19.6780     0.0000   120.0000 </r>
       <r>   -19.5778     0.0000   120.0000 </r>
       <r>   -19.4776     0.0000   120.0000 </r>
       <r>   -19.3775     0.0000   120.0000 </r>
       <r>   -19.2773     0.0000   120.0000 </r>
       <r>   -19.1771     0.0000   120.0000 </r>
       <r>   -19.0769     0.0000   120.0000 </r>
       <r>   -18.9767     0.0000   120.0000 </r>
       <r>   -18.8765     0.0000   120.0000 </r>
       <r>   -18.7763     0.0000   120.0000 </r>
       <r>   -18.6761     0.0000   120.0000 </r>
       <r>   -18.5760     0.0000   120.0000 </r>
       <r>   -18.4758     0.0000   120.0000 </r>
       <r>   -18.3756     0.0000   120.0000 </r>
       <r>   -18.2754     0.0000   120.0000 </r>
       <r>   -18.1752     0.0000   120.0000 </r>
       <r>   -18.0750     0.0000   120.0000 </r>
       <r>   -17.9748     0.0000   120.0000 </r>
       <r>   -17.8746     0.0000   120.0000 </r>
       <r>   -17.7744     0.0000   120.0000 </r>
       <r>   -17.6743     0.0000   120.0000 </r>
       <r>   -17.5741     0.0000   120.0000 </r>
       <r>   -17.4739     0.0000   120.0000 </r>
       <r>   -17.3737     0.0000   120.0000 </r>
       <r>   -17.2735     0.0000   120.0000 </r>
       <r>   -17.1733     0.0000   120.0000 </r>
       <r>   -17.0731     0.0000   120.0000 </r>
       <r>   -16.9729     0.0000   120.0000 </r>
       <r>   -16.8728     0.0000   120.0000 </r>
       <r>   -16.7726     0.0000   120.0000 </r>
       <r>   -16.6724     0.0000   120.0000 </r>
       <r>   -16.5722     0.0000   120.0000 </r>
       <r>   -16.4720     0.0000   120.0000 </r>
       <r>   -16.3718     0.0000   120.0000 </r>
       <r>   -16.2716     0.0000   120.0000 </r>
       <r>   -16.1714     0.0000   120.0000 </r>
       <r>   -16.0713     0.0000   120.0000 </r>
       <r>   -15.9711     0.0000   120.0000 </r>
       <r>   -15.8709     0.0000   120.0000 </r>
       <r>   -15.7707     0.0000   120.0000 </r>
       <r>   -15.6705     0.0000   120.0000 </r>
       <r>   -15.5703     0.0000   120.0000 </r>
       <r>   -15.4701     0.0000   120.0000 </r>
       <r>   -15.3699     0.0000   120.0000 </r>
       <r>   -15.2698     0.0000   120.0000 </r>
       <r>   -15.1696     0.0000   120.0000 </r>
       <r>   -15.0694     0.0000   120.0000 </r>
       <r>   -14.9692     0.0000   120.0000 </r>
       <r>   -14.8690     0.0000   120.0000 </r>
       <r>   -14.7688     0.0000   120.0000 </r>
       <r>   -14.6686     0.0000   120.0000 </r>
       <r>   -14.5684     0.0000   120.0000 </r>
       <r>   -14.4683     0.0000   120.0000 </r>
       <r>   -14.3681     0.0000   120.0000 </r>
       <r>   -14.2679     0.0000   120.0000 </r>
       <r>   -14.1677     0.0000   120.0000 </r>
       <r>   -14.0675     0.0000   120.0000 </r>
       <r>   -13.9673     0.0000   120.0000 </r>
       <r>   -13.8671     0.0000   120.0000 </r>
       <r>   -13.7669     0.0000   120.0000 </r>
       <r>   -13.6667     0.0000   120.0000 </r>
       <r>   -13.5666     0.0799   120.0080 </r>
       <r>   -13.4664     5.2124   120.5302 </r>
       <r>   -13.3662    12.7613   121.8087 </r>
       <r>   -13.2660     2.4071   122.0499 </r>
       <r>   -13.1658    14.3345   123.4861 </r>
       <r>   -13.0656    18.0585   125.2953 </r>
       <r>   -12.9654     1.0917   125.4047 </r>
       <r>   -12.8652    11.2980   126.5366 </r>
       <r>   -12.7651    12.0077   127.7396 </r>
       <r>   -12.6649    13.3133   129.0734 </r>
       <r>   -12.5647    16.8250   130.7591 </r>
       <r>   -12.4645    10.6702   131.8281 </r>
       <r>   -12.3643    12.1611   133.0465 </r>
       <r>   -12.2641    11.8274   134.2315 </r>
       <r>   -12.1639    31.3010   137.3675 </r>
       <r>   -12.0637    19.4582   139.3169 </r>
       <r>   -11.9636    23.5148   141.6728 </r>
       <r>   -11.8634    14.9452   143.1702 </r>
       <r>   -11.7632     8.1976   143.9915 </r>
       <r>   -11.6630     0.0853   144.0000 </r>
       <r>   -11.5628     0.0000   144.0000 </r>
       <r>   -11.4626     0.0000   144.0000 </r>
       <r>   -11.3624     0.0000   144.0000 </r>
       <r>   -11.2622     0.0000   144.0000 </r>
       <r>   -11.1621     0.0000   144.0000 </r>
       <r>   -11.0619     0.0000   144.0000 </r>
       <r>   -10.9617     0.0000   144.0000 </r>
       <r>   -10.8615     0.0000   144.0000 </r>
       <r>   -10.7613     0.0000   144.0000 </r>
       <r>   -10.6611     0.0000   144.0000 </r>
       <r>   -10.5609     0.0000   144.0000 </r>
       <r>   -10.4607     0.0000   144.0000 </r>
       <r>   -10.3605     0.0000   144.0000 </r>
       <r>   -10.2604     0.0299   144.0030 </r>
       <r>   -10.1602     4.1053   144.4143 </r>
       <r>   -10.0600    15.9492   146.0122 </r>
       <r>    -9.9598    31.0925   149.1273 </r>
       <r>    -9.8596    29.0865   152.0414 </r>
       <r>    -9.7594    19.7743   154.0226 </r>
       <r>    -9.6592    10.5096   155.0755 </r>
       <r>    -9.5590    13.8653   156.4646 </r>
       <r>    -9.4589    17.8761   158.2556 </r>
       <r>    -9.3587    17.0919   159.9680 </r>
       <r>    -9.2585    15.5561   161.5266 </r>
       <r>    -9.1583    11.6491   162.6937 </r>
       <r>    -9.0581    21.8763   164.8854 </r>
       <r>    -8.9579    24.5174   167.3417 </r>
       <r>    -8.8577     6.5525   167.9982 </r>
       <r>    -8.7575     0.0178   168.0000 </r>
       <r>    -8.6574     0.0000   168.0000 </r>
       <r>    -8.5572     0.0000   168.0000 </r>
       <r>    -8.4570     0.0000   168.0000 </r>
       <r>    -8.3568     0.0000   168.0000 </r>
       <r>    -8.2566     0.0000   168.0000 </r>
       <r>    -8.1564     0.0000   168.0000 </r>
       <r>    -8.0562     0.0000   168.0000 </r>
       <r>    -7.9560     0.0000   168.0000 </r>
       <r>    -7.8559     0.0000   168.0000 </r>
       <r>    -7.7557     0.0000   168.0000 </r>
       <r>    -7.6555     0.0000   168.0000 </r>
       <r>    -7.5553     0.0000   168.0000 </r>
       <r>    -7.4551     0.0000   168.0000 </r>
       <r>    -7.3549     0.0000   168.0000 </r>
       <r>    -7.2547     0.0000   168.0000 </r>
       <r>    -7.1545     0.0000   168.0000 </r>
       <r>    -7.0543     0.0000   168.0000 </r>
       <r>    -6.9542     0.0000   168.0000 </r>
       <r>    -6.8540     0.0000   168.0000 </r>
       <r>    -6.7538     0.0000   168.0000 </r>
       <r>    -6.6536     0.0000   168.0000 </r>
       <r>    -6.5534     0.0000   168.0000 </r>
       <r>    -6.4532     0.0000   168.0000 </r>
       <r>    -6.3530     0.0000   168.0000 </r>
       <r>    -6.2528     0.0000   168.0000 </r>
       <r>    -6.1527     0.0000   168.0000 </r>
       <r>    -6.0525     0.0000   168.0000 </r>
       <r>    -5.9523     0.0000   168.0000 </r>
       <r>    -5.8521     0.0000   168.0000 </r>
       <r>    -5.7519     0.0000   168.0000 </r>
       <r>    -5.6517     0.0000   168.0000 </r>
       <r>    -5.5515     0.0000   168.0000 </r>
       <r>    -5.4513     0.0005   168.0000 </r>
       <r>    -5.3512     1.1151   168.1118 </r>
       <r>    -5.2510     5.5670   168.6695 </r>
       <r>    -5.1508    10.0703   169.6784 </r>
       <r>    -5.0506     5.8261   170.2621 </r>
       <r>    -4.9504    32.3011   173.4983 </r>
       <r>    -4.8502    22.7400   175.7766 </r>
       <r>    -4.7500    34.6518   179.2483 </r>
       <r>    -4.6498    28.4263   182.0962 </r>
       <r>    -4.5497    14.4797   183.5469 </r>
       <r>    -4.4495     8.3650   184.3850 </r>
       <r>    -4.3493    14.2761   185.8153 </r>
       <r>    -4.2491    33.4761   189.1692 </r>
       <r>    -4.1489    22.5440   191.4278 </r>
       <r>    -4.0487    10.7882   192.5087 </r>
       <r>    -3.9485    19.0139   194.4136 </r>
       <r>    -3.8483    27.9775   197.2166 </r>
       <r>    -3.7481    37.3476   200.9584 </r>
       <r>    -3.6480    19.3305   202.8951 </r>
       <r>    -3.5478    16.9777   204.5960 </r>
       <r>    -3.4476    23.7213   206.9726 </r>
       <r>    -3.3474    10.6806   208.0427 </r>
       <r>    -3.2472    33.5748   211.4065 </r>
       <r>    -3.1470    18.8880   213.2988 </r>
       <r>    -3.0468    44.2183   217.7290 </r>
       <r>    -2.9466    18.9219   219.6247 </r>
       <r>    -2.8465    30.6700   222.6975 </r>
       <r>    -2.7463    19.3464   224.6357 </r>
       <r>    -2.6461    16.6680   226.3057 </r>
       <r>    -2.5459    23.8304   228.6932 </r>
       <r>    -2.4457    25.1830   231.2162 </r>
       <r>    -2.3455    21.1141   233.3316 </r>
       <r>    -2.2453    13.3191   234.6660 </r>
       <r>    -2.1451    16.9655   236.3657 </r>
       <r>    -2.0450    11.5412   237.5220 </r>
       <r>    -1.9448     4.9628   238.0192 </r>
       <r>    -1.8446     9.2589   238.9469 </r>
       <r>    -1.7444     5.7255   239.5205 </r>
       <r>    -1.6442     2.5987   239.7809 </r>
       <r>    -1.5440     2.1623   239.9975 </r>
       <r>    -1.4438     0.0250   240.0000 </r>
       <r>    -1.3436     0.0000   240.0000 </r>
       <r>    -1.2435     0.0000   240.0000 </r>
       <r>    -1.1433     0.0000   240.0000 </r>
       <r>    -1.0431     0.0000   240.0000 </r>
       <r>    -0.9429     0.0177   240.0018 </r>
       <r>    -0.8427     2.7669   240.2790 </r>
       <r>    -0.7425     6.8790   240.9682 </r>
       <r>    -0.6423     4.4160   241.4106 </r>
       <r>    -0.5421    26.8584   244.1015 </r>
       <r>    -0.4420    25.2601   246.6323 </r>
       <r>    -0.3418    32.3333   249.8717 </r>
       <r>    -0.2416    31.8095   253.0586 </r>
       <r>    -0.1414    33.6809   256.4330 </r>
       <r>    -0.0412    15.9049   258.0265 </r>
       <r>     0.0590    19.0112   259.9312 </r>
       <r>     0.1592    21.4615   262.0813 </r>
       <r>     0.2594    14.0081   263.4848 </r>
       <r>     0.3596    10.3472   264.5214 </r>
       <r>     0.4597    29.9009   267.5172 </r>
       <r>     0.5599    29.5166   270.4744 </r>
       <r>     0.6601    27.1849   273.1980 </r>
       <r>     0.7603    46.3118   277.8378 </r>
       <r>     0.8605    30.0832   280.8518 </r>
       <r>     0.9607    11.4320   281.9972 </r>
       <r>     1.0609    19.5062   283.9515 </r>
       <r>     1.1611    18.5567   285.8106 </r>
       <r>     1.2612    32.7389   289.0906 </r>
       <r>     1.3614    35.9369   292.6911 </r>
       <r>     1.4616    32.6492   295.9621 </r>
       <r>     1.5618    10.1704   296.9811 </r>
       <r>     1.6620     0.1888   297.0000 </r>
       <r>     1.7622     0.0000   297.0000 </r>
       <r>     1.8624     0.0000   297.0000 </r>
       <r>     1.9626     0.0000   297.0000 </r>
       <r>     2.0627     0.0000   297.0000 </r>
       <r>     2.1629     0.0000   297.0000 </r>
       <r>     2.2631     0.0000   297.0000 </r>
       <r>     2.3633     0.0000   297.0000 </r>
       <r>     2.4635     0.0000   297.0000 </r>
       <r>     2.5637     0.0000   297.0000 </r>
       <r>     2.6639     0.0000   297.0000 </r>
       <r>     2.7641     0.0000   297.0000 </r>
       <r>     2.8642     0.0000   297.0000 </r>
      </set>
      <set comment="spin 2">
       <r>   -27.1921     0.0000     0.0000 </r>
       <r>   -27.0919     0.0000     0.0000 </r>
       <r>   -26.9917     0.0000     0.0000 </r>
       <r>   -26.8915     0.0000     0.0000 </r>
       <r>   -26.7914     0.0000     0.0000 </r>
       <r>   -26.6912     0.0000     0.0000 </r>
       <r>   -26.5910     0.0000     0.0000 </r>
       <r>   -26.4908     0.0000     0.0000 </r>
       <r>   -26.3906     0.0000     0.0000 </r>
       <r>   -26.2904     0.0000     0.0000 </r>
       <r>   -26.1902     0.0000     0.0000 </r>
       <r>   -26.0900     0.0000     0.0000 </r>
       <r>   -25.9899     0.0000     0.0000 </r>
       <r>   -25.8897     0.0000     0.0000 </r>
       <r>   -25.7895     0.0000     0.0000 </r>
       <r>   -25.6893     0.0000     0.0000 </r>
       <r>   -25.5891     0.0000     0.0000 </r>
       <r>   -25.4889     0.0000     0.0000 </r>
       <r>   -25.3887     0.0000     0.0000 </r>
       <r>   -25.2885     0.0000     0.0000 </r>
       <r>   -25.1884     0.0000     0.0000 </r>
       <r>   -25.0882     0.0000     0.0000 </r>
       <r>   -24.9880     0.0000     0.0000 </r>
       <r>   -24.8878     0.0000     0.0000 </r>
       <r>   -24.7876     0.0000     0.0000 </r>
       <r>   -24.6874     0.0000     0.0000 </r>
       <r>   -24.5872     0.0000     0.0000 </r>
       <r>   -24.4870     0.0000     0.0000 </r>
       <r>   -24.3868     0.0000     0.0000 </r>
       <r>   -24.2867     0.0000     0.0000 </r>
       <r>   -24.1865     0.0000     0.0000 </r>
       <r>   -24.0863     0.0000     0.0000 </r>
       <r>   -23.9861     0.0000     0.0000 </r>
       <r>   -23.8859     0.0000     0.0000 </r>
       <r>   -23.7857     0.0000     0.0000 </r>
       <r>   -23.6855     0.0000     0.0000 </r>
       <r>   -23.5853     0.0000     0.0000 </r>
       <r>   -23.4852     0.0000     0.0000 </r>
       <r>   -23.3850     0.0000     0.0000 </r>
       <r>   -23.2848     0.0000     0.0000 </r>
       <r>   -23.1846     0.0000     0.0000 </r>
       <r>   -23.0844     0.0000     0.0000 </r>
       <r>   -22.9842     0.0000     0.0000 </r>
       <r>   -22.8840     0.0000     0.0000 </r>
       <r>   -22.7838     0.0000     0.0000 </r>
       <r>   -22.6837     0.0000     0.0000 </r>
       <r>   -22.5835     0.0000     0.0000 </r>
       <r>   -22.4833     0.0000     0.0000 </r>
       <r>   -22.3831     0.0000     0.0000 </r>
       <r>   -22.2829     0.0000     0.0000 </r>
       <r>   -22.1827     0.0000     0.0000 </r>
       <r>   -22.0825     0.0000     0.0000 </r>
       <r>   -21.9823     0.0000     0.0000 </r>
       <r>   -21.8822     0.0000     0.0000 </r>
       <r>   -21.7820     0.0000     0.0000 </r>
       <r>   -21.6818     0.0000     0.0000 </r>
       <r>   -21.5816     0.0000     0.0000 </r>
       <r>   -21.4814     0.0000     0.0000 </r>
       <r>   -21.3812     0.0000     0.0000 </r>
       <r>   -21.2810     0.0000     0.0000 </r>
       <r>   -21.1808     0.0000     0.0000 </r>
       <r>   -21.0806     0.0000     0.0000 </r>
       <r>   -20.9805     0.0000     0.0000 </r>
       <r>   -20.8803     0.0000     0.0000 </r>
       <r>   -20.7801     0.0000     0.0000 </r>
       <r>   -20.6799     0.0000     0.0000 </r>
       <r>   -20.5797     0.0000     0.0000 </r>
       <r>   -20.4795     0.0000     0.0000 </r>
       <r>   -20.3793     0.0000     0.0000 </r>
       <r>   -20.2791     0.0000     0.0000 </r>
       <r>   -20.1790     0.0000     0.0000 </r>
       <r>   -20.0788     0.0000     0.0000 </r>
       <r>   -19.9786     0.0000     0.0000 </r>
       <r>   -19.8784     0.0000     0.0000 </r>
       <r>   -19.7782     0.0000     0.0000 </r>
       <r>   -19.6780     0.0000     0.0000 </r>
       <r>   -19.5778     0.0000     0.0000 </r>
       <r>   -19.4776     0.0000     0.0000 </r>
       <r>   -19.3775     0.0000     0.0000 </r>
       <r>   -19.2773     0.0000     0.0000 </r>
       <r>   -19.1771     0.0000     0.0000 </r>
       <r>   -19.0769     0.0000     0.0000 </r>
       <r>   -18.9767     0.0000     0.0000 </r>
       <r>   -18.8765     0.0000     0.0000 </r>
       <r>   -18.7763     0.0000     0.0000 </r>
       <r>   -18.6761     0.0000     0.0000 </r>
       <r>   -18.5760     0.0000     0.0000 </r>
       <r>   -18.4758     0.0000     0.0000 </r>
       <r>   -18.3756     0.0000     0.0000 </r>
       <r>   -18.2754     0.0000     0.0000 </r>
       <r>   -18.1752     0.0000     0.0000 </r>
       <r>   -18.0750     0.0000     0.0000 </r>
       <r>   -17.9748     0.0000     0.0000 </r>
       <r>   -17.8746     0.0000     0.0000 </r>
       <r>   -17.7744     0.0000     0.0000 </r>
       <r>   -17.6743     0.0000     0.0000 </r>
       <r>   -17.5741     0.0000     0.0000 </r>
       <r>   -17.4739     0.0000     0.0000 </r>
       <r>   -17.3737     0.0000     0.0000 </r>
       <r>   -17.2735     0.0000     0.0000 </r>
       <r>   -17.1733     0.0000     0.0000 </r>
       <r>   -17.0731     0.0000     0.0000 </r>
       <r>   -16.9729     0.0000     0.0000 </r>
       <r>   -16.8728     0.0000     0.0000 </r>
       <r>   -16.7726     0.0000     0.0000 </r>
       <r>   -16.6724     0.0000     0.0000 </r>
       <r>   -16.5722     0.0000     0.0000 </r>
       <r>   -16.4720     0.0000     0.0000 </r>
       <r>   -16.3718     0.0000     0.0000 </r>
       <r>   -16.2716     0.0000     0.0000 </r>
       <r>   -16.1714     0.0000     0.0000 </r>
       <r>   -16.0713     0.0000     0.0000 </r>
       <r>   -15.9711     0.0000     0.0000 </r>
       <r>   -15.8709     0.0000     0.0000 </r>
       <r>   -15.7707     0.0000     0.0000 </r>
       <r>   -15.6705     0.0000     0.0000 </r>
       <r>   -15.5703     0.0000     0.0000 </r>
       <r>   -15.4701     0.0000     0.0000 </r>
       <r>   -15.3699     0.0000     0.0000 </r>
       <r>   -15.2698     0.0000     0.0000 </r>
       <r>   -15.1696     0.0000     0.0000 </r>
       <r>   -15.0694     0.0000     0.0000 </r>
       <r>   -14.9692     0.0000     0.0000 </r>
       <r>   -14.8690     0.0000     0.0000 </r>
       <r>   -14.7688     0.0000     0.0000 </r>
       <r>   -14.6686     0.0000     0.0000 </r>
       <r>   -14.5684     0.0000     0.0000 </r>
       <r>   -14.4683     0.0000     0.0000 </r>
       <r>   -14.3681     0.0000     0.0000 </r>
       <r>   -14.2679     0.0000     0.0000 </r>
       <r>   -14.1677     0.0000     0.0000 </r>
       <r>   -14.0675     0.0000     0.0000 </r>
       <r>   -13.9673     0.0000     0.0000 </r>
       <r>   -13.8671     0.0000     0.0000 </r>
       <r>   -13.7669     0.0000     0.0000 </r>
       <r>   -13.6667     0.0000     0.0000 </r>
       <r>   -13.5666     0.0000     0.0000 </r>
       <r>   -13.4664     0.0000     0.0000 </r>
       <r>   -13.3662     0.0000     0.0000 </r>
       <r>   -13.2660     0.0000     0.0000 </r>
       <r>   -13.1658     0.0000     0.0000 </r>
       <r>   -13.0656     0.0000     0.0000 </r>
       <r>   -12.9654     0.0000     0.0000 </r>
       <r>   -12.8652     0.0000     0.0000 </r>
       <r>   -12.7651     0.0000     0.0000 </r>
       <r>   -12.6649     0.0000     0.0000 </r>
       <r>   -12.5647     0.0000     0.0000 </r>
       <r>   -12.4645     0.0000     0.0000 </r>
       <r>   -12.3643     0.0000     0.0000 </r>
       <r>   -12.2641     0.0000     0.0000 </r>
       <r>   -12.1639     0.0000     0.0000 </r>
       <r>   -12.0637     0.0000     0.0000 </r>
       <r>   -11.9636     0.0000     0.0000 </r>
       <r>   -11.8634     0.0000     0.0000 </r>
       <r>   -11.7632     0.0000     0.0000 </r>
       <r>   -11.6630     0.0000     0.0000 </r>
       <r>   -11.5628     0.0000     0.0000 </r>
       <r>   -11.4626     0.0000     0.0000 </r>
       <r>   -11.3624     0.0000     0.0000 </r>
       <r>   -11.2622     0.0000     0.0000 </r>
       <r>   -11.1621     0.0000     0.0000 </r>
       <r>   -11.0619     0.0000     0.0000 </r>
       <r>   -10.9617     0.0000     0.0000 </r>
       <r>   -10.8615     0.0000     0.0000 </r>
       <r>   -10.7613     0.0000     0.0000 </r>
       <r>   -10.6611     0.0000     0.0000 </r>
       <r>   -10.5609     0.0000     0.0000 </r>
       <r>   -10.4607     0.0000     0.0000 </r>
       <r>   -10.3605     0.0000     0.0000 </r>
       <r>   -10.2604     0.0000     0.0000 </r>
       <r>   -10.1602     0.0000     0.0000 </r>
       <r>   -10.0600     0.0000     0.0000 </r>
       <r>    -9.9598     0.0000     0.0000 </r>
       <r>    -9.8596     0.0000     0.0000 </r>
       <r>    -9.7594     0.0000     0.0000 </r>
       <r>    -9.6592     0.0000     0.0000 </r>
       <r>    -9.5590     0.0000     0.0000 </r>
       <r>    -9.4589     0.0000     0.0000 </r>
       <r>    -9.3587     0.0000     0.0000 </r>
       <r>    -9.2585     0.0000     0.0000 </r>
       <r>    -9.1583     0.0000     0.0000 </r>
       <r>    -9.0581     0.0000     0.0000 </r>
       <r>    -8.9579     0.0000     0.0000 </r>
       <r>    -8.8577     0.0000     0.0000 </r>
       <r>    -8.7575     0.0000     0.0000 </r>
       <r>    -8.6574     0.0000     0.0000 </r>
       <r>    -8.5572     0.0000     0.0000 </r>
       <r>    -8.4570     0.0000     0.0000 </r>
       <r>    -8.3568     0.0000     0.0000 </r>
       <r>    -8.2566     0.0000     0.0000 </r>
       <r>    -8.1564     0.0000     0.0000 </r>
       <r>    -8.0562     0.0000     0.0000 </r>
       <r>    -7.9560     0.0000     0.0000 </r>
       <r>    -7.8559     0.0000     0.0000 </r>
       <r>    -7.7557     0.0000     0.0000 </r>
       <r>    -7.6555     0.0000     0.0000 </r>
       <r>    -7.5553     0.0000     0.0000 </r>
       <r>    -7.4551     0.0000     0.0000 </r>
       <r>    -7.3549     0.0000     0.0000 </r>
       <r>    -7.2547     0.0000     0.0000 </r>
       <r>    -7.1545     0.0000     0.0000 </r>
       <r>    -7.0543     0.0000     0.0000 </r>
       <r>    -6.9542     0.0000     0.0000 </r>
       <r>    -6.8540     0.0000     0.0000 </r>
       <r>    -6.7538     0.0000     0.0000 </r>
       <r>    -6.6536     0.0000     0.0000 </r>
       <r>    -6.5534     0.0000     0.0000 </r>
       <r>    -6.4532     0.0000     0.0000 </r>
       <r>    -6.3530     0.0000     0.0000 </r>
       <r>    -6.2528     0.0000     0.0000 </r>
       <r>    -6.1527     0.0000     0.0000 </r>
       <r>    -6.0525     0.0000     0.0000 </r>
       <r>    -5.9523     0.0000     0.0000 </r>
       <r>    -5.8521     0.0000     0.0000 </r>
       <r>    -5.7519     0.0000     0.0000 </r>
       <r>    -5.6517     0.0000     0.0000 </r>
       <r>    -5.5515     0.0000     0.0000 </r>
       <r>    -5.4513     0.0000     0.0000 </r>
       <r>    -5.3512     0.0000     0.0000 </r>
       <r>    -5.2510     0.0000     0.0000 </r>
       <r>    -5.1508     0.0000     0.0000 </r>
       <r>    -5.0506     0.0000     0.0000 </r>
       <r>    -4.9504     0.0000     0.0000 </r>
       <r>    -4.8502     0.0000     0.0000 </r>
       <r>    -4.7500     0.0000     0.0000 </r>
       <r>    -4.6498     0.0000     0.0000 </r>
       <r>    -4.5497     0.0000     0.0000 </r>
       <r>    -4.4495     0.0000     0.0000 </r>
       <r>    -4.3493     0.0000     0.0000 </r>
       <r>    -4.2491     0.0000     0.0000 </r>
       <r>    -4.1489     0.0000     0.0000 </r>
       <r>    -4.0487     0.0000     0.0000 </r>
       <r>    -3.9485     0.0000     0.0000 </r>
       <r>    -3.8483     0.0000     0.0000 </r>
       <r>    -3.7481     0.0000     0.0000 </r>
       <r>    -3.6480     0.0000     0.0000 </r>
       <r>    -3.5478     0.0000     0.0000 </r>
       <r>    -3.4476     0.0000     0.0000 </r>
       <r>    -3.3474     0.0000     0.0000 </r>
       <r>    -3.2472     0.0000     0.0000 </r>
       <r>    -3.1470     0.0000     0.0000 </r>
       <r>    -3.0468     0.0000     0.0000 </r>
       <r>    -2.9466     0.0000     0.0000 </r>
       <r>    -2.8465     0.0000     0.0000 </r>
       <r>    -2.7463     0.0000     0.0000 </r>
       <r>    -2.6461     0.0000     0.0000 </r>
       <r>    -2.5459     0.0000     0.0000 </r>
       <r>    -2.4457     0.0000     0.0000 </r>
       <r>    -2.3455     0.0000     0.0000 </r>
       <r>    -2.2453     0.0000     0.0000 </r>
       <r>    -2.1451     0.0000     0.0000 </r>
       <r>    -2.0450     0.0000     0.0000 </r>
       <r>    -1.9448     0.0000     0.0000 </r>
       <r>    -1.8446     0.0000     0.0000 </r>
       <r>    -1.7444     0.0000     0.0000 </r>
       <r>    -1.6442     0.0000     0.0000 </r>
       <r>    -1.5440     0.0000     0.0000 </r>
       <r>    -1.4438     0.0000     0.0000 </r>
       <r>    -1.3436     0.0000     0.0000 </r>
       <r>    -1.2435     0.0000     0.0000 </r>
       <r>    -1.1433     0.0000     0.0000 </r>
       <r>    -1.0431     0.0000     0.0000 </r>
       <r>    -0.9429     0.0000     0.0000 </r>
       <r>    -0.8427     0.0000     0.0000 </r>
       <r>    -0.7425     0.0000     0.0000 </r>
       <r>    -0.6423     0.0000     0.0000 </r>
       <r>    -0.5421     0.0000     0.0000 </r>
       <r>    -0.4420     0.0000     0.0000 </r>
       <r>    -0.3418     0.0000     0.0000 </r>
       <r>    -0.2416     0.0000     0.0000 </r>
       <r>    -0.1414     0.0000     0.0000 </r>
       <r>    -0.0412     0.0000     0.0000 </r>
       <r>     0.0590     0.0000     0.0000 </r>
       <r>     0.1592     0.0000     0.0000 </r>
       <r>     0.2594     0.0000     0.0000 </r>
       <r>     0.3596     0.0000     0.0000 </r>
       <r>     0.4597     0.0000     0.0000 </r>
       <r>     0.5599     0.0000     0.0000 </r>
       <r>     0.6601     0.0000     0.0000 </r>
       <r>     0.7603     0.0000     0.0000 </r>
       <r>     0.8605     0.0000     0.0000 </r>
       <r>     0.9607     0.0000     0.0000 </r>
       <r>     1.0609     0.0000     0.0000 </r>
       <r>     1.1611     0.0000     0.0000 </r>
       <r>     1.2612     0.0000     0.0000 </r>
       <r>     1.3614     0.0000     0.0000 </r>
       <r>     1.4616     0.0000     0.0000 </r>
       <r>     1.5618     0.0000     0.0000 </r>
       <r>     1.6620     0.0000     0.0000 </r>
       <r>     1.7622     0.0000     0.0000 </r>
       <r>     1.8624     0.0000     0.0000 </r>
       <r>     1.9626     0.0000     0.0000 </r>
       <r>     2.0627     0.0000     0.0000 </r>
       <r>     2.1629     0.0000     0.0000 </r>
       <r>     2.2631     0.0000     0.0000 </r>
       <r>     2.3633     0.0000     0.0000 </r>
       <r>     2.4635     0.0000     0.0000 </r>
       <r>     2.5637     0.0000     0.0000 </r>
       <r>     2.6639     0.0000     0.0000 </r>
       <r>     2.7641     0.0000     0.0000 </r>
       <r>     2.8642     0.0000     0.0000 </r>
      </set>
      <set comment="spin 3">
       <r>   -27.1921     0.0000     0.0000 </r>
       <r>   -27.0919     0.0000     0.0000 </r>
       <r>   -26.9917     0.0000     0.0000 </r>
       <r>   -26.8915     0.0000     0.0000 </r>
       <r>   -26.7914     0.0000     0.0000 </r>
       <r>   -26.6912     0.0000     0.0000 </r>
       <r>   -26.5910     0.0000     0.0000 </r>
       <r>   -26.4908     0.0000     0.0000 </r>
       <r>   -26.3906     0.0000     0.0000 </r>
       <r>   -26.2904     0.0000     0.0000 </r>
       <r>   -26.1902     0.0000     0.0000 </r>
       <r>   -26.0900     0.0000     0.0000 </r>
       <r>   -25.9899     0.0000     0.0000 </r>
       <r>   -25.8897     0.0000     0.0000 </r>
       <r>   -25.7895     0.0000     0.0000 </r>
       <r>   -25.6893     0.0000     0.0000 </r>
       <r>   -25.5891     0.0000     0.0000 </r>
       <r>   -25.4889     0.0000     0.0000 </r>
       <r>   -25.3887     0.0000     0.0000 </r>
       <r>   -25.2885     0.0000     0.0000 </r>
       <r>   -25.1884     0.0000     0.0000 </r>
       <r>   -25.0882     0.0000     0.0000 </r>
       <r>   -24.9880     0.0000     0.0000 </r>
       <r>   -24.8878     0.0000     0.0000 </r>
       <r>   -24.7876     0.0000     0.0000 </r>
       <r>   -24.6874     0.0000     0.0000 </r>
       <r>   -24.5872     0.0000     0.0000 </r>
       <r>   -24.4870     0.0000     0.0000 </r>
       <r>   -24.3868     0.0000     0.0000 </r>
       <r>   -24.2867     0.0000     0.0000 </r>
       <r>   -24.1865     0.0000     0.0000 </r>
       <r>   -24.0863     0.0000     0.0000 </r>
       <r>   -23.9861     0.0000     0.0000 </r>
       <r>   -23.8859     0.0000     0.0000 </r>
       <r>   -23.7857     0.0000     0.0000 </r>
       <r>   -23.6855     0.0000     0.0000 </r>
       <r>   -23.5853     0.0000     0.0000 </r>
       <r>   -23.4852     0.0000     0.0000 </r>
       <r>   -23.3850     0.0000     0.0000 </r>
       <r>   -23.2848     0.0000     0.0000 </r>
       <r>   -23.1846     0.0000     0.0000 </r>
       <r>   -23.0844     0.0000     0.0000 </r>
       <r>   -22.9842     0.0000     0.0000 </r>
       <r>   -22.8840     0.0000     0.0000 </r>
       <r>   -22.7838     0.0000     0.0000 </r>
       <r>   -22.6837     0.0000     0.0000 </r>
       <r>   -22.5835     0.0000     0.0000 </r>
       <r>   -22.4833     0.0000     0.0000 </r>
       <r>   -22.3831     0.0000     0.0000 </r>
       <r>   -22.2829     0.0000     0.0000 </r>
       <r>   -22.1827     0.0000     0.0000 </r>
       <r>   -22.0825     0.0000     0.0000 </r>
       <r>   -21.9823     0.0000     0.0000 </r>
       <r>   -21.8822     0.0000     0.0000 </r>
       <r>   -21.7820     0.0000     0.0000 </r>
       <r>   -21.6818     0.0000     0.0000 </r>
       <r>   -21.5816     0.0000     0.0000 </r>
       <r>   -21.4814     0.0000     0.0000 </r>
       <r>   -21.3812     0.0000     0.0000 </r>
       <r>   -21.2810     0.0000     0.0000 </r>
       <r>   -21.1808     0.0000     0.0000 </r>
       <r>   -21.0806     0.0000     0.0000 </r>
       <r>   -20.9805     0.0000     0.0000 </r>
       <r>   -20.8803     0.0000     0.0000 </r>
       <r>   -20.7801     0.0000     0.0000 </r>
       <r>   -20.6799     0.0000     0.0000 </r>
       <r>   -20.5797     0.0000     0.0000 </r>
       <r>   -20.4795     0.0000     0.0000 </r>
       <r>   -20.3793     0.0000     0.0000 </r>
       <r>   -20.2791     0.0000     0.0000 </r>
       <r>   -20.1790     0.0000     0.0000 </r>
       <r>   -20.0788     0.0000     0.0000 </r>
       <r>   -19.9786     0.0000     0.0000 </r>
       <r>   -19.8784     0.0000     0.0000 </r>
       <r>   -19.7782     0.0000     0.0000 </r>
       <r>   -19.6780     0.0000     0.0000 </r>
       <r>   -19.5778     0.0000     0.0000 </r>
       <r>   -19.4776     0.0000     0.0000 </r>
       <r>   -19.3775     0.0000     0.0000 </r>
       <r>   -19.2773     0.0000     0.0000 </r>
       <r>   -19.1771     0.0000     0.0000 </r>
       <r>   -19.0769     0.0000     0.0000 </r>
       <r>   -18.9767     0.0000     0.0000 </r>
       <r>   -18.8765     0.0000     0.0000 </r>
       <r>   -18.7763     0.0000     0.0000 </r>
       <r>   -18.6761     0.0000     0.0000 </r>
       <r>   -18.5760     0.0000     0.0000 </r>
       <r>   -18.4758     0.0000     0.0000 </r>
       <r>   -18.3756     0.0000     0.0000 </r>
       <r>   -18.2754     0.0000     0.0000 </r>
       <r>   -18.1752     0.0000     0.0000 </r>
       <r>   -18.0750     0.0000     0.0000 </r>
       <r>   -17.9748     0.0000     0.0000 </r>
       <r>   -17.8746     0.0000     0.0000 </r>
       <r>   -17.7744     0.0000     0.0000 </r>
       <r>   -17.6743     0.0000     0.0000 </r>
       <r>   -17.5741     0.0000     0.0000 </r>
       <r>   -17.4739     0.0000     0.0000 </r>
       <r>   -17.3737     0.0000     0.0000 </r>
       <r>   -17.2735     0.0000     0.0000 </r>
       <r>   -17.1733     0.0000     0.0000 </r>
       <r>   -17.0731     0.0000     0.0000 </r>
       <r>   -16.9729     0.0000     0.0000 </r>
       <r>   -16.8728     0.0000     0.0000 </r>
       <r>   -16.7726     0.0000     0.0000 </r>
       <r>   -16.6724     0.0000     0.0000 </r>
       <r>   -16.5722     0.0000     0.0000 </r>
       <r>   -16.4720     0.0000     0.0000 </r>
       <r>   -16.3718     0.0000     0.0000 </r>
       <r>   -16.2716     0.0000     0.0000 </r>
       <r>   -16.1714     0.0000     0.0000 </r>
       <r>   -16.0713     0.0000     0.0000 </r>
       <r>   -15.9711     0.0000     0.0000 </r>
       <r>   -15.8709     0.0000     0.0000 </r>
       <r>   -15.7707     0.0000     0.0000 </r>
       <r>   -15.6705     0.0000     0.0000 </r>
       <r>   -15.5703     0.0000     0.0000 </r>
       <r>   -15.4701     0.0000     0.0000 </r>
       <r>   -15.3699     0.0000     0.0000 </r>
       <r>   -15.2698     0.0000     0.0000 </r>
       <r>   -15.1696     0.0000     0.0000 </r>
       <r>   -15.0694     0.0000     0.0000 </r>
       <r>   -14.9692     0.0000     0.0000 </r>
       <r>   -14.8690     0.0000     0.0000 </r>
       <r>   -14.7688     0.0000     0.0000 </r>
       <r>   -14.6686     0.0000     0.0000 </r>
       <r>   -14.5684     0.0000     0.0000 </r>
       <r>   -14.4683     0.0000     0.0000 </r>
       <r>   -14.3681     0.0000     0.0000 </r>
       <r>   -14.2679     0.0000     0.0000 </r>
       <r>   -14.1677     0.0000     0.0000 </r>
       <r>   -14.0675     0.0000     0.0000 </r>
       <r>   -13.9673     0.0000     0.0000 </r>
       <r>   -13.8671     0.0000     0.0000 </r>
       <r>   -13.7669     0.0000     0.0000 </r>
       <r>   -13.6667     0.0000     0.0000 </r>
       <r>   -13.5666     0.0000     0.0000 </r>
       <r>   -13.4664     0.0000     0.0000 </r>
       <r>   -13.3662     0.0000     0.0000 </r>
       <r>   -13.2660     0.0000     0.0000 </r>
       <r>   -13.1658     0.0000     0.0000 </r>
       <r>   -13.0656     0.0000     0.0000 </r>
       <r>   -12.9654     0.0000     0.0000 </r>
       <r>   -12.8652     0.0000     0.0000 </r>
       <r>   -12.7651     0.0000     0.0000 </r>
       <r>   -12.6649     0.0000     0.0000 </r>
       <r>   -12.5647     0.0000     0.0000 </r>
       <r>   -12.4645     0.0000     0.0000 </r>
       <r>   -12.3643     0.0000     0.0000 </r>
       <r>   -12.2641     0.0000     0.0000 </r>
       <r>   -12.1639     0.0000     0.0000 </r>
       <r>   -12.0637     0.0000     0.0000 </r>
       <r>   -11.9636     0.0000     0.0000 </r>
       <r>   -11.8634     0.0000     0.0000 </r>
       <r>   -11.7632     0.0000     0.0000 </r>
       <r>   -11.6630     0.0000     0.0000 </r>
       <r>   -11.5628     0.0000     0.0000 </r>
       <r>   -11.4626     0.0000     0.0000 </r>
       <r>   -11.3624     0.0000     0.0000 </r>
       <r>   -11.2622     0.0000     0.0000 </r>
       <r>   -11.1621     0.0000     0.0000 </r>
       <r>   -11.0619     0.0000     0.0000 </r>
       <r>   -10.9617     0.0000     0.0000 </r>
       <r>   -10.8615     0.0000     0.0000 </r>
       <r>   -10.7613     0.0000     0.0000 </r>
       <r>   -10.6611     0.0000     0.0000 </r>
       <r>   -10.5609     0.0000     0.0000 </r>
       <r>   -10.4607     0.0000     0.0000 </r>
       <r>   -10.3605     0.0000     0.0000 </r>
       <r>   -10.2604     0.0000     0.0000 </r>
       <r>   -10.1602     0.0000     0.0000 </r>
       <r>   -10.0600     0.0000     0.0000 </r>
       <r>    -9.9598     0.0000     0.0000 </r>
       <r>    -9.8596     0.0000     0.0000 </r>
       <r>    -9.7594     0.0000     0.0000 </r>
       <r>    -9.6592     0.0000     0.0000 </r>
       <r>    -9.5590     0.0000     0.0000 </r>
       <r>    -9.4589     0.0000     0.0000 </r>
       <r>    -9.3587     0.0000     0.0000 </r>
       <r>    -9.2585     0.0000     0.0000 </r>
       <r>    -9.1583     0.0000     0.0000 </r>
       <r>    -9.0581     0.0000     0.0000 </r>
       <r>    -8.9579     0.0000     0.0000 </r>
       <r>    -8.8577     0.0000     0.0000 </r>
       <r>    -8.7575     0.0000     0.0000 </r>
       <r>    -8.6574     0.0000     0.0000 </r>
       <r>    -8.5572     0.0000     0.0000 </r>
       <r>    -8.4570     0.0000     0.0000 </r>
       <r>    -8.3568     0.0000     0.0000 </r>
       <r>    -8.2566     0.0000     0.0000 </r>
       <r>    -8.1564     0.0000     0.0000 </r>
       <r>    -8.0562     0.0000     0.0000 </r>
       <r>    -7.9560     0.0000     0.0000 </r>
       <r>    -7.8559     0.0000     0.0000 </r>
       <r>    -7.7557     0.0000     0.0000 </r>
       <r>    -7.6555     0.0000     0.0000 </r>
       <r>    -7.5553     0.0000     0.0000 </r>
       <r>    -7.4551     0.0000     0.0000 </r>
       <r>    -7.3549     0.0000     0.0000 </r>
       <r>    -7.2547     0.0000     0.0000 </r>
       <r>    -7.1545     0.0000     0.0000 </r>
       <r>    -7.0543     0.0000     0.0000 </r>
       <r>    -6.9542     0.0000     0.0000 </r>
       <r>    -6.8540     0.0000     0.0000 </r>
       <r>    -6.7538     0.0000     0.0000 </r>
       <r>    -6.6536     0.0000     0.0000 </r>
       <r>    -6.5534     0.0000     0.0000 </r>
       <r>    -6.4532     0.0000     0.0000 </r>
       <r>    -6.3530     0.0000     0.0000 </r>
       <r>    -6.2528     0.0000     0.0000 </r>
       <r>    -6.1527     0.0000     0.0000 </r>
       <r>    -6.0525     0.0000     0.0000 </r>
       <r>    -5.9523     0.0000     0.0000 </r>
       <r>    -5.8521     0.0000     0.0000 </r>
       <r>    -5.7519     0.0000     0.0000 </r>
       <r>    -5.6517     0.0000     0.0000 </r>
       <r>    -5.5515     0.0000     0.0000 </r>
       <r>    -5.4513     0.0000     0.0000 </r>
       <r>    -5.3512     0.0000     0.0000 </r>
       <r>    -5.2510     0.0000     0.0000 </r>
       <r>    -5.1508     0.0000     0.0000 </r>
       <r>    -5.0506     0.0000     0.0000 </r>
       <r>    -4.9504     0.0000     0.0000 </r>
       <r>    -4.8502     0.0000     0.0000 </r>
       <r>    -4.7500     0.0000     0.0000 </r>
       <r>    -4.6498     0.0000     0.0000 </r>
       <r>    -4.5497     0.0000     0.0000 </r>
       <r>    -4.4495     0.0000     0.0000 </r>
       <r>    -4.3493     0.0000     0.0000 </r>
       <r>    -4.2491     0.0000     0.0000 </r>
       <r>    -4.1489     0.0000     0.0000 </r>
       <r>    -4.0487     0.0000     0.0000 </r>
       <r>    -3.9485     0.0000     0.0000 </r>
       <r>    -3.8483     0.0000     0.0000 </r>
       <r>    -3.7481     0.0000     0.0000 </r>
       <r>    -3.6480     0.0000     0.0000 </r>
       <r>    -3.5478     0.0000     0.0000 </r>
       <r>    -3.4476     0.0000     0.0000 </r>
       <r>    -3.3474     0.0000     0.0000 </r>
       <r>    -3.2472     0.0000     0.0000 </r>
       <r>    -3.1470     0.0000     0.0000 </r>
       <r>    -3.0468     0.0000     0.0000 </r>
       <r>    -2.9466     0.0000     0.0000 </r>
       <r>    -2.8465     0.0000     0.0000 </r>
       <r>    -2.7463     0.0000     0.0000 </r>
       <r>    -2.6461     0.0000     0.0000 </r>
       <r>    -2.5459     0.0000     0.0000 </r>
       <r>    -2.4457     0.0000     0.0000 </r>
       <r>    -2.3455     0.0000     0.0000 </r>
       <r>    -2.2453     0.0000     0.0000 </r>
       <r>    -2.1451     0.0000     0.0000 </r>
       <r>    -2.0450     0.0000     0.0000 </r>
       <r>    -1.9448     0.0000     0.0000 </r>
       <r>    -1.8446     0.0000     0.0000 </r>
       <r>    -1.7444     0.0000     0.0000 </r>
       <r>    -1.6442     0.0000     0.0000 </r>
       <r>    -1.5440     0.0000     0.0000 </r>
       <r>    -1.4438     0.0000     0.0000 </r>
       <r>    -1.3436     0.0000     0.0000 </r>
       <r>    -1.2435     0.0000     0.0000 </r>
       <r>    -1.1433     0.0000     0.0000 </r>
       <r>    -1.0431     0.0000     0.0000 </r>
       <r>    -0.9429     0.0000     0.0000 </r>
       <r>    -0.8427     0.0000     0.0000 </r>
       <r>    -0.7425     0.0000     0.0000 </r>
       <r>    -0.6423     0.0000     0.0000 </r>
       <r>    -0.5421     0.0000     0.0000 </r>
       <r>    -0.4420     0.0000     0.0000 </r>
       <r>    -0.3418     0.0000     0.0000 </r>
       <r>    -0.2416     0.0000     0.0000 </r>
       <r>    -0.1414     0.0000     0.0000 </r>
       <r>    -0.0412     0.0000     0.0000 </r>
       <r>     0.0590     0.0000     0.0000 </r>
       <r>     0.1592     0.0000     0.0000 </r>
       <r>     0.2594     0.0000     0.0000 </r>
       <r>     0.3596     0.0000     0.0000 </r>
       <r>     0.4597     0.0000     0.0000 </r>
       <r>     0.5599     0.0000     0.0000 </r>
       <r>     0.6601     0.0000     0.0000 </r>
       <r>     0.7603     0.0000     0.0000 </r>
       <r>     0.8605     0.0000     0.0000 </r>
       <r>     0.9607     0.0000     0.0000 </r>
       <r>     1.0609     0.0000     0.0000 </r>
       <r>     1.1611     0.0000     0.0000 </r>
       <r>     1.2612     0.0000     0.0000 </r>
       <r>     1.3614     0.0000     0.0000 </r>
       <r>     1.4616     0.0000     0.0000 </r>
       <r>     1.5618     0.0000     0.0000 </r>
       <r>     1.6620     0.0000     0.0000 </r>
       <r>     1.7622     0.0000     0.0000 </r>
       <r>     1.8624     0.0000     0.0000 </r>
       <r>     1.9626     0.0000     0.0000 </r>
       <r>     2.0627     0.0000     0.0000 </r>
       <r>     2.1629     0.0000     0.0000 </r>
       <r>     2.2631     0.0000     0.0000 </r>
       <r>     2.3633     0.0000     0.0000 </r>
       <r>     2.4635     0.0000     0.0000 </r>
       <r>     2.5637     0.0000     0.0000 </r>
       <r>     2.6639     0.0000     0.0000 </r>
       <r>     2.7641     0.0000     0.0000 </r>
       <r>     2.8642     0.0000     0.0000 </r>
      </set>
      <set comment="spin 4">
       <r>   -27.1921     0.0000     0.0000 </r>
       <r>   -27.0919     0.0000     0.0000 </r>
       <r>   -26.9917     0.0000     0.0000 </r>
       <r>   -26.8915     0.0000     0.0000 </r>
       <r>   -26.7914     0.0000     0.0000 </r>
       <r>   -26.6912     0.0000     0.0000 </r>
       <r>   -26.5910     0.0000     0.0000 </r>
       <r>   -26.4908     0.0000     0.0000 </r>
       <r>   -26.3906     0.0000     0.0000 </r>
       <r>   -26.2904     0.0000     0.0000 </r>
       <r>   -26.1902     0.0000     0.0000 </r>
       <r>   -26.0900     0.0000     0.0000 </r>
       <r>   -25.9899     0.0000     0.0000 </r>
       <r>   -25.8897     0.0000     0.0000 </r>
       <r>   -25.7895     0.0000     0.0000 </r>
       <r>   -25.6893     0.0000     0.0000 </r>
       <r>   -25.5891     0.0000     0.0000 </r>
       <r>   -25.4889     0.0000     0.0000 </r>
       <r>   -25.3887     0.0000     0.0000 </r>
       <r>   -25.2885     0.0000     0.0000 </r>
       <r>   -25.1884     0.0000     0.0000 </r>
       <r>   -25.0882     0.0000     0.0000 </r>
       <r>   -24.9880     0.0000     0.0000 </r>
       <r>   -24.8878     0.0000     0.0000 </r>
       <r>   -24.7876     0.0000     0.0000 </r>
       <r>   -24.6874     0.0000     0.0000 </r>
       <r>   -24.5872     0.0000     0.0000 </r>
       <r>   -24.4870     0.0000     0.0000 </r>
       <r>   -24.3868     0.0000     0.0000 </r>
       <r>   -24.2867     0.0000     0.0000 </r>
       <r>   -24.1865     0.0000     0.0000 </r>
       <r>   -24.0863     0.0000     0.0000 </r>
       <r>   -23.9861     0.0000     0.0000 </r>
       <r>   -23.8859     0.0000     0.0000 </r>
       <r>   -23.7857     0.0000     0.0000 </r>
       <r>   -23.6855     0.0000     0.0000 </r>
       <r>   -23.5853     0.0000     0.0000 </r>
       <r>   -23.4852     0.0000     0.0000 </r>
       <r>   -23.3850     0.0000     0.0000 </r>
       <r>   -23.2848     0.0000     0.0000 </r>
       <r>   -23.1846     0.0000     0.0000 </r>
       <r>   -23.0844     0.0000     0.0000 </r>
       <r>   -22.9842     0.0000     0.0000 </r>
       <r>   -22.8840     0.0000     0.0000 </r>
       <r>   -22.7838     0.0000     0.0000 </r>
       <r>   -22.6837     0.0000     0.0000 </r>
       <r>   -22.5835     0.0000     0.0000 </r>
       <r>   -22.4833     0.0000     0.0000 </r>
       <r>   -22.3831     0.0000     0.0000 </r>
       <r>   -22.2829     0.0000     0.0000 </r>
       <r>   -22.1827     0.0000     0.0000 </r>
       <r>   -22.0825     0.0000     0.0000 </r>
       <r>   -21.9823     0.0000     0.0000 </r>
       <r>   -21.8822     0.0000     0.0000 </r>
       <r>   -21.7820     0.0000     0.0000 </r>
       <r>   -21.6818     0.0000     0.0000 </r>
       <r>   -21.5816     0.0000     0.0000 </r>
       <r>   -21.4814     0.0000     0.0000 </r>
       <r>   -21.3812     0.0000     0.0000 </r>
       <r>   -21.2810     0.0000     0.0000 </r>
       <r>   -21.1808     0.0000     0.0000 </r>
       <r>   -21.0806     0.0000     0.0000 </r>
       <r>   -20.9805     0.0000     0.0000 </r>
       <r>   -20.8803     0.0000     0.0000 </r>
       <r>   -20.7801     0.0000     0.0000 </r>
       <r>   -20.6799     0.0000     0.0000 </r>
       <r>   -20.5797     0.0000     0.0000 </r>
       <r>   -20.4795     0.0000     0.0000 </r>
       <r>   -20.3793     0.0000     0.0000 </r>
       <r>   -20.2791     0.0000     0.0000 </r>
       <r>   -20.1790     0.0000     0.0000 </r>
       <r>   -20.0788     0.0000     0.0000 </r>
       <r>   -19.9786     0.0000     0.0000 </r>
       <r>   -19.8784     0.0000     0.0000 </r>
       <r>   -19.7782     0.0000     0.0000 </r>
       <r>   -19.6780     0.0000     0.0000 </r>
       <r>   -19.5778     0.0000     0.0000 </r>
       <r>   -19.4776     0.0000     0.0000 </r>
       <r>   -19.3775     0.0000     0.0000 </r>
       <r>   -19.2773     0.0000     0.0000 </r>
       <r>   -19.1771     0.0000     0.0000 </r>
       <r>   -19.0769     0.0000     0.0000 </r>
       <r>   -18.9767     0.0000     0.0000 </r>
       <r>   -18.8765     0.0000     0.0000 </r>
       <r>   -18.7763     0.0000     0.0000 </r>
       <r>   -18.6761     0.0000     0.0000 </r>
       <r>   -18.5760     0.0000     0.0000 </r>
       <r>   -18.4758     0.0000     0.0000 </r>
       <r>   -18.3756     0.0000     0.0000 </r>
       <r>   -18.2754     0.0000     0.0000 </r>
       <r>   -18.1752     0.0000     0.0000 </r>
       <r>   -18.0750     0.0000     0.0000 </r>
       <r>   -17.9748     0.0000     0.0000 </r>
       <r>   -17.8746     0.0000     0.0000 </r>
       <r>   -17.7744     0.0000     0.0000 </r>
       <r>   -17.6743     0.0000     0.0000 </r>
       <r>   -17.5741     0.0000     0.0000 </r>
       <r>   -17.4739     0.0000     0.0000 </r>
       <r>   -17.3737     0.0000     0.0000 </r>
       <r>   -17.2735     0.0000     0.0000 </r>
       <r>   -17.1733     0.0000     0.0000 </r>
       <r>   -17.0731     0.0000     0.0000 </r>
       <r>   -16.9729     0.0000     0.0000 </r>
       <r>   -16.8728     0.0000     0.0000 </r>
       <r>   -16.7726     0.0000     0.0000 </r>
       <r>   -16.6724     0.0000     0.0000 </r>
       <r>   -16.5722     0.0000     0.0000 </r>
       <r>   -16.4720     0.0000     0.0000 </r>
       <r>   -16.3718     0.0000     0.0000 </r>
       <r>   -16.2716     0.0000     0.0000 </r>
       <r>   -16.1714     0.0000     0.0000 </r>
       <r>   -16.0713     0.0000     0.0000 </r>
       <r>   -15.9711     0.0000     0.0000 </r>
       <r>   -15.8709     0.0000     0.0000 </r>
       <r>   -15.7707     0.0000     0.0000 </r>
       <r>   -15.6705     0.0000     0.0000 </r>
       <r>   -15.5703     0.0000     0.0000 </r>
       <r>   -15.4701     0.0000     0.0000 </r>
       <r>   -15.3699     0.0000     0.0000 </r>
       <r>   -15.2698     0.0000     0.0000 </r>
       <r>   -15.1696     0.0000     0.0000 </r>
       <r>   -15.0694     0.0000     0.0000 </r>
       <r>   -14.9692     0.0000     0.0000 </r>
       <r>   -14.8690     0.0000     0.0000 </r>
       <r>   -14.7688     0.0000     0.0000 </r>
       <r>   -14.6686     0.0000     0.0000 </r>
       <r>   -14.5684     0.0000     0.0000 </r>
       <r>   -14.4683     0.0000     0.0000 </r>
       <r>   -14.3681     0.0000     0.0000 </r>
       <r>   -14.2679     0.0000     0.0000 </r>
       <r>   -14.1677     0.0000     0.0000 </r>
       <r>   -14.0675     0.0000     0.0000 </r>
       <r>   -13.9673     0.0000     0.0000 </r>
       <r>   -13.8671     0.0000     0.0000 </r>
       <r>   -13.7669     0.0000     0.0000 </r>
       <r>   -13.6667     0.0000     0.0000 </r>
       <r>   -13.5666     0.0000     0.0000 </r>
       <r>   -13.4664     0.0000     0.0000 </r>
       <r>   -13.3662     0.0000     0.0000 </r>
       <r>   -13.2660     0.0000     0.0000 </r>
       <r>   -13.1658     0.0000     0.0000 </r>
       <r>   -13.0656     0.0000     0.0000 </r>
       <r>   -12.9654     0.0000     0.0000 </r>
       <r>   -12.8652     0.0000     0.0000 </r>
       <r>   -12.7651     0.0000     0.0000 </r>
       <r>   -12.6649     0.0000     0.0000 </r>
       <r>   -12.5647     0.0000     0.0000 </r>
       <r>   -12.4645     0.0000     0.0000 </r>
       <r>   -12.3643     0.0000     0.0000 </r>
       <r>   -12.2641     0.0000     0.0000 </r>
       <r>   -12.1639     0.0000     0.0000 </r>
       <r>   -12.0637     0.0000     0.0000 </r>
       <r>   -11.9636     0.0000     0.0000 </r>
       <r>   -11.8634     0.0000     0.0000 </r>
       <r>   -11.7632     0.0000     0.0000 </r>
       <r>   -11.6630     0.0000     0.0000 </r>
       <r>   -11.5628     0.0000     0.0000 </r>
       <r>   -11.4626     0.0000     0.0000 </r>
       <r>   -11.3624     0.0000     0.0000 </r>
       <r>   -11.2622     0.0000     0.0000 </r>
       <r>   -11.1621     0.0000     0.0000 </r>
       <r>   -11.0619     0.0000     0.0000 </r>
       <r>   -10.9617     0.0000     0.0000 </r>
       <r>   -10.8615     0.0000     0.0000 </r>
       <r>   -10.7613     0.0000     0.0000 </r>
       <r>   -10.6611     0.0000     0.0000 </r>
       <r>   -10.5609     0.0000     0.0000 </r>
       <r>   -10.4607     0.0000     0.0000 </r>
       <r>   -10.3605     0.0000     0.0000 </r>
       <r>   -10.2604     0.0000     0.0000 </r>
       <r>   -10.1602     0.0000     0.0000 </r>
       <r>   -10.0600     0.0000     0.0000 </r>
       <r>    -9.9598     0.0000     0.0000 </r>
       <r>    -9.8596     0.0000     0.0000 </r>
       <r>    -9.7594     0.0000     0.0000 </r>
       <r>    -9.6592     0.0000     0.0000 </r>
       <r>    -9.5590     0.0000     0.0000 </r>
       <r>    -9.4589     0.0000     0.0000 </r>
       <r>    -9.3587     0.0000     0.0000 </r>
       <r>    -9.2585     0.0000     0.0000 </r>
       <r>    -9.1583     0.0000     0.0000 </r>
       <r>    -9.0581     0.0000     0.0000 </r>
       <r>    -8.9579     0.0000     0.0000 </r>
       <r>    -8.8577     0.0000     0.0000 </r>
       <r>    -8.7575     0.0000     0.0000 </r>
       <r>    -8.6574     0.0000     0.0000 </r>
       <r>    -8.5572     0.0000     0.0000 </r>
       <r>    -8.4570     0.0000     0.0000 </r>
       <r>    -8.3568     0.0000     0.0000 </r>
       <r>    -8.2566     0.0000     0.0000 </r>
       <r>    -8.1564     0.0000     0.0000 </r>
       <r>    -8.0562     0.0000     0.0000 </r>
       <r>    -7.9560     0.0000     0.0000 </r>
       <r>    -7.8559     0.0000     0.0000 </r>
       <r>    -7.7557     0.0000     0.0000 </r>
       <r>    -7.6555     0.0000     0.0000 </r>
       <r>    -7.5553     0.0000     0.0000 </r>
       <r>    -7.4551     0.0000     0.0000 </r>
       <r>    -7.3549     0.0000     0.0000 </r>
       <r>    -7.2547     0.0000     0.0000 </r>
       <r>    -7.1545     0.0000     0.0000 </r>
       <r>    -7.0543     0.0000     0.0000 </r>
       <r>    -6.9542     0.0000     0.0000 </r>
       <r>    -6.8540     0.0000     0.0000 </r>
       <r>    -6.7538     0.0000     0.0000 </r>
       <r>    -6.6536     0.0000     0.0000 </r>
       <r>    -6.5534     0.0000     0.0000 </r>
       <r>    -6.4532     0.0000     0.0000 </r>
       <r>    -6.3530     0.0000     0.0000 </r>
       <r>    -6.2528     0.0000     0.0000 </r>
       <r>    -6.1527     0.0000     0.0000 </r>
       <r>    -6.0525     0.0000     0.0000 </r>
       <r>    -5.9523     0.0000     0.0000 </r>
       <r>    -5.8521     0.0000     0.0000 </r>
       <r>    -5.7519     0.0000     0.0000 </r>
       <r>    -5.6517     0.0000     0.0000 </r>
       <r>    -5.5515     0.0000     0.0000 </r>
       <r>    -5.4513     0.0000     0.0000 </r>
       <r>    -5.3512     0.0000     0.0000 </r>
       <r>    -5.2510     0.0000     0.0000 </r>
       <r>    -5.1508     0.0000     0.0000 </r>
       <r>    -5.0506     0.0000     0.0000 </r>
       <r>    -4.9504     0.0000     0.0000 </r>
       <r>    -4.8502     0.0000     0.0000 </r>
       <r>    -4.7500     0.0000     0.0000 </r>
       <r>    -4.6498     0.0000     0.0000 </r>
       <r>    -4.5497     0.0000     0.0000 </r>
       <r>    -4.4495     0.0000     0.0000 </r>
       <r>    -4.3493     0.0000     0.0000 </r>
       <r>    -4.2491     0.0000     0.0000 </r>
       <r>    -4.1489     0.0000     0.0000 </r>
       <r>    -4.0487     0.0000     0.0000 </r>
       <r>    -3.9485     0.0000     0.0000 </r>
       <r>    -3.8483     0.0000     0.0000 </r>
       <r>    -3.7481     0.0000     0.0000 </r>
       <r>    -3.6480     0.0000     0.0000 </r>
       <r>    -3.5478     0.0000     0.0000 </r>
       <r>    -3.4476     0.0000     0.0000 </r>
       <r>    -3.3474     0.0000     0.0000 </r>
       <r>    -3.2472     0.0000     0.0000 </r>
       <r>    -3.1470     0.0000     0.0000 </r>
       <r>    -3.0468     0.0000     0.0000 </r>
       <r>    -2.9466     0.0000     0.0000 </r>
       <r>    -2.8465     0.0000     0.0000 </r>
       <r>    -2.7463     0.0000     0.0000 </r>
       <r>    -2.6461     0.0000     0.0000 </r>
       <r>    -2.5459     0.0000     0.0000 </r>
       <r>    -2.4457     0.0000     0.0000 </r>
       <r>    -2.3455     0.0000     0.0000 </r>
       <r>    -2.2453     0.0000     0.0000 </r>
       <r>    -2.1451     0.0000     0.0000 </r>
       <r>    -2.0450     0.0000     0.0000 </r>
       <r>    -1.9448     0.0000     0.0000 </r>
       <r>    -1.8446     0.0000     0.0000 </r>
       <r>    -1.7444     0.0000     0.0000 </r>
       <r>    -1.6442     0.0000     0.0000 </r>
       <r>    -1.5440     0.0000     0.0000 </r>
       <r>    -1.4438     0.0000     0.0000 </r>
       <r>    -1.3436     0.0000     0.0000 </r>
       <r>    -1.2435     0.0000     0.0000 </r>
       <r>    -1.1433     0.0000     0.0000 </r>
       <r>    -1.0431     0.0000     0.0000 </r>
       <r>    -0.9429     0.0000     0.0000 </r>
       <r>    -0.8427     0.0000     0.0000 </r>
       <r>    -0.7425     0.0000     0.0000 </r>
       <r>    -0.6423     0.0000     0.0000 </r>
       <r>    -0.5421     0.0000     0.0000 </r>
       <r>    -0.4420     0.0000     0.0000 </r>
       <r>    -0.3418     0.0000     0.0000 </r>
       <r>    -0.2416     0.0000     0.0000 </r>
       <r>    -0.1414     0.0000     0.0000 </r>
       <r>    -0.0412     0.0000     0.0000 </r>
       <r>     0.0590     0.0000     0.0000 </r>
       <r>     0.1592     0.0000     0.0000 </r>
       <r>     0.2594     0.0000     0.0000 </r>
       <r>     0.3596     0.0000     0.0000 </r>
       <r>     0.4597     0.0000     0.0000 </r>
       <r>     0.5599     0.0000     0.0000 </r>
       <r>     0.6601     0.0000     0.0000 </r>
       <r>     0.7603     0.0000     0.0000 </r>
       <r>     0.8605     0.0000     0.0000 </r>
       <r>     0.9607     0.0000     0.0000 </r>
       <r>     1.0609     0.0000     0.0000 </r>
       <r>     1.1611     0.0000     0.0000 </r>
       <r>     1.2612     0.0000     0.0000 </r>
       <r>     1.3614     0.0000     0.0000 </r>
       <r>     1.4616     0.0000     0.0000 </r>
       <r>     1.5618     0.0000     0.0000 </r>
       <r>     1.6620     0.0000     0.0000 </r>
       <r>     1.7622     0.0000     0.0000 </r>
       <r>     1.8624     0.0000     0.0000 </r>
       <r>     1.9626     0.0000     0.0000 </r>
       <r>     2.0627     0.0000     0.0000 </r>
       <r>     2.1629     0.0000     0.0000 </r>
       <r>     2.2631     0.0000     0.0000 </r>
       <r>     2.3633     0.0000     0.0000 </r>
       <r>     2.4635     0.0000     0.0000 </r>
       <r>     2.5637     0.0000     0.0000 </r>
       <r>     2.6639     0.0000     0.0000 </r>
       <r>     2.7641     0.0000     0.0000 </r>
       <r>     2.8642     0.0000     0.0000 </r>
      </set>
     </set>
    </array>
   </total>
  </dos>
 </calculation>
 <structure name="finalpos" >
  <crystal>
   <varray name="basis" >
    <v>      14.79171371       0.00000000       0.00000000 </v>
    <v>       0.00000000      12.78000069       0.00000000 </v>
    <v>       0.00000000       0.00000000      17.00000000 </v>
   </varray>
   <i name="volume">   3213.64789431 </i>
   <varray name="rec_basis" >
    <v>       0.06760542       0.00000000       0.00000000 </v>
    <v>       0.00000000       0.07824726       0.00000000 </v>
    <v>       0.00000000       0.00000000       0.05882353 </v>
   </varray>
  </crystal>
  <varray name="positions" >
   <v>       0.08333333       0.00000000       0.55000000 </v>
   <v>       0.58333333       0.00000000       0.55000000 </v>
   <v>       0.08333333       0.33333333       0.55000000 </v>
   <v>       0.58333333       0.33333333       0.55000000 </v>
   <v>       0.08333333       0.66666667       0.55000000 </v>
   <v>       0.58333333       0.66666667       0.55000000 </v>
   <v>       0.33333333       0.16666667       0.55000000 </v>
   <v>       0.83333333       0.16666667       0.55000000 </v>
   <v>       0.33333333       0.50000000       0.55000000 </v>
   <v>       0.83333333       0.50000000       0.55000000 </v>
   <v>       0.33333333       0.83333333       0.55000000 </v>
   <v>       0.83333333       0.83333333       0.55000000 </v>
   <v>       0.16666667       0.16666667       0.45000000 </v>
   <v>       0.66666667       0.16666667       0.45000000 </v>
   <v>       0.16666667       0.50000000       0.45000000 </v>
   <v>       0.66666667       0.50000000       0.45000000 </v>
   <v>       0.16666667       0.83333333       0.45000000 </v>
   <v>       0.66666667       0.83333333       0.45000000 </v>
   <v>       0.41666667       0.00000000       0.45000000 </v>
   <v>       0.91666667       0.00000000       0.45000000 </v>
   <v>       0.41666667       0.33333333       0.45000000 </v>
   <v>       0.91666667       0.33333333       0.45000000 </v>
   <v>       0.41666667       0.66666667       0.45000000 </v>
   <v>       0.91666667       0.66666667       0.45000000 </v>
  </varray>
 </structure>
</modeling>
