generated by phonopy
   1.0
    34.2183771201200031    0.0000000000000000    0.0009066690257608
     0.0000000000000000   21.2906669840692331    0.0000000000000000
     0.0004775466920902    0.0000000000000000   17.0563598770962130
Bi Sb
  40   40
Direct
  0.0407828904053363  0.0000000000000000  0.5449754783500300
  0.2907828904053363  0.0000000000000000  0.5449754783500300
  0.5407828904053363  0.0000000000000000  0.5449754783500300
  0.7907828904053364  0.0000000000000000  0.5449754783500300
  0.0407828904053363  0.2000000000000000  0.5449754783500300
  0.2907828904053363  0.2000000000000000  0.5449754783500300
  0.5407828904053363  0.2000000000000000  0.5449754783500300
  0.7907828904053364  0.2000000000000000  0.5449754783500300
  0.0407828904053363  0.4000000000000000  0.5449754783500300
  0.2907828904053363  0.4000000000000000  0.5449754783500300
  0.5407828904053363  0.4000000000000000  0.5449754783500300
  0.7907828904053364  0.4000000000000000  0.5449754783500300
  0.0407828904053363  0.6000000000000001  0.5449754783500300
  0.2907828904053363  0.6000000000000001  0.5449754783500300
  0.5407828904053363  0.6000000000000001  0.5449754783500300
  0.7907828904053364  0.6000000000000001  0.5449754783500300
  0.0407828904053363  0.7999999999999999  0.5449754783500300
  0.2907828904053363  0.7999999999999999  0.5449754783500300
  0.5407828904053363  0.7999999999999999  0.5449754783500300
  0.7907828904053364  0.7999999999999999  0.5449754783500300
  0.1657828904053363  0.1000000000000000  0.5449754783500300
  0.4157828904053363  0.1000000000000000  0.5449754783500300
  0.6657828904053364  0.1000000000000000  0.5449754783500300
  0.9157828904053364  0.1000000000000000  0.5449754783500300
  0.1657828904053363  0.3000000000000000  0.5449754783500300
  0.4157828904053363  0.3000000000000000  0.5449754783500300
  0.6657828904053364  0.3000000000000000  0.5449754783500300
  0.9157828904053364  0.3000000000000000  0.5449754783500300
  0.1657828904053363  0.4999999999999999  0.5449754783500300
  0.4157828904053363  0.4999999999999999  0.5449754783500300
  0.6657828904053364  0.4999999999999999  0.5449754783500300
  0.9157828904053364  0.4999999999999999  0.5449754783500300
  0.1657828904053363  0.7000000000000001  0.5449754783500300
  0.4157828904053363  0.7000000000000001  0.5449754783500300
  0.6657828904053364  0.7000000000000001  0.5449754783500300
  0.9157828904053364  0.7000000000000001  0.5449754783500300
  0.1657828904053363  0.8999999999999999  0.5449754783500300
  0.4157828904053363  0.8999999999999999  0.5449754783500300
  0.6657828904053364  0.8999999999999999  0.5449754783500300
  0.9157828904053364  0.8999999999999999  0.5449754783500300
  0.0842171095946637  0.1000000000000000  0.4556108132191053
  0.3342171095946637  0.1000000000000000  0.4550245216499700
  0.5842171095946637  0.1000000000000000  0.4550245216499700
  0.8342171095946638  0.1000000000000000  0.4550245216499700
  0.0842171095946637  0.3000000000000000  0.4550245216499700
  0.3342171095946637  0.3000000000000000  0.4550245216499700
  0.5842171095946637  0.3000000000000000  0.4550245216499700
  0.8342171095946638  0.3000000000000000  0.4550245216499700
  0.0842171095946637  0.4999999999999999  0.4550245216499700
  0.3342171095946637  0.4999999999999999  0.4550245216499700
  0.5842171095946637  0.4999999999999999  0.4550245216499700
  0.8342171095946638  0.4999999999999999  0.4550245216499700
  0.0842171095946637  0.7000000000000001  0.4550245216499700
  0.3342171095946637  0.7000000000000001  0.4550245216499700
  0.5842171095946637  0.7000000000000001  0.4550245216499700
  0.8342171095946638  0.7000000000000001  0.4550245216499700
  0.0842171095946637  0.8999999999999999  0.4550245216499700
  0.3342171095946637  0.8999999999999999  0.4550245216499700
  0.5842171095946637  0.8999999999999999  0.4550245216499700
  0.8342171095946638  0.8999999999999999  0.4550245216499700
  0.2092171095946637  0.0000000000000000  0.4550245216499700
  0.4592171095946637  0.0000000000000000  0.4550245216499700
  0.7092171095946638  0.0000000000000000  0.4550245216499700
  0.9592171095946638  0.0000000000000000  0.4550245216499700
  0.2092171095946637  0.2000000000000000  0.4550245216499700
  0.4592171095946637  0.2000000000000000  0.4550245216499700
  0.7092171095946638  0.2000000000000000  0.4550245216499700
  0.9592171095946638  0.2000000000000000  0.4550245216499700
  0.2092171095946637  0.4000000000000000  0.4550245216499700
  0.4592171095946637  0.4000000000000000  0.4550245216499700
  0.7092171095946638  0.4000000000000000  0.4550245216499700
  0.9592171095946638  0.4000000000000000  0.4550245216499700
  0.2092171095946637  0.6000000000000001  0.4550245216499700
  0.4592171095946637  0.6000000000000001  0.4550245216499700
  0.7092171095946638  0.6000000000000001  0.4550245216499700
  0.9592171095946638  0.6000000000000001  0.4550245216499700
  0.2092171095946637  0.7999999999999999  0.4550245216499700
  0.4592171095946637  0.7999999999999999  0.4550245216499700
  0.7092171095946638  0.7999999999999999  0.4550245216499700
  0.9592171095946638  0.7999999999999999  0.4550245216499700
