Buckled BiSb Strain
   1.00000000000000
     8.5545942800300008    0.0000000000000000    0.0002266672564402
     0.0000000000000000    4.2581333968138466    0.0000000000000000
     0.0004775466920902    0.0000000000000000   17.0563598770962130
   Bi   Sb
     2     2
Direct
  0.1631315616213453  0.0000000000000000  0.5449754783500300
  0.6631315616213452  0.5000000000000000  0.5449754783500300
  0.3368684383786547  0.5000000000000000  0.4550245216499700
  0.8368684383786548  0.0000000000000000  0.4550245216499700

  0.00000000E+00  0.00000000E+00  0.00000000E+00
  0.00000000E+00  0.00000000E+00  0.00000000E+00
  0.00000000E+00  0.00000000E+00  0.00000000E+00
  0.00000000E+00  0.00000000E+00  0.00000000E+00
